#=======================================================
# FHI-aims file: pahs_geometry_fix/CENXUO.in
# Created using the Atomic Simulation Environment (ASE)
# Tue May 25 14:20:52 2021
#=======================================================
lattice_vector 0.0000000000000018 11.4139999999999997 0.0000000000000007 
lattice_vector -0.0000000000000000 -0.0000000000000000 11.5719999999999992 
lattice_vector 20.0571210982470340 -0.0000000000000000 -3.1372749720503492 
atom 11.9319813413471607 0.7419100000000000 5.4355671191272474 H
atom 8.1251397568998751 10.6720900000000007 2.9991579088224039 H
atom 8.1251397568998751 6.4489099999999988 8.7851579088224057 H
atom 11.9319813413471607 4.9650900000000000 -0.3504328808727524 H
atom 9.5612296275343613 0.6848400000000000 5.4245170208235978 H
atom 10.4958914707126745 10.7291599999999985 3.0102080071260535 H
atom 10.4958914707126763 6.3918400000000002 8.7962080071260544 H
atom 9.5612296275343613 5.0221599999999995 -0.3614829791764012 H
atom 8.3417566647609434 10.9460259999999998 7.0501913391242601 H
atom 11.7153644334860942 0.4679740000000000 1.3845336888253914 H
atom 11.7153644334860942 5.2390260000000000 7.1705336888253912 H
atom 8.3417566647609434 6.1749740000000006 1.2641913391242601 H
atom 8.2695510288072533 9.6562439999999992 9.0287255290236406 H
atom 11.7875700694397842 1.7577559999999999 -0.5940005010739904 H
atom 11.7875700694397842 3.9492439999999998 5.1919994989260090 H
atom 8.2695510288072533 7.4647560000000004 3.2427255290236419 H
atom 9.3686812649911921 8.5148440000000001 -0.7132411394447177 H
atom 10.6884398332558455 2.8991560000000001 9.1479661673943706 H
atom 10.6884398332558455 2.8078439999999998 3.3619661673943693 H
atom 9.3686812649911921 8.6061560000000004 5.0727588605552825 H
atom 11.7273987061450420 8.3550480000000000 -0.7465966761578384 H
atom 8.3297223921019956 3.0589520000000001 9.1813217041074910 H
atom 8.3297223921019956 2.6480480000000002 3.3953217041074906 H
atom 11.7273987061450420 8.7659520000000004 5.0394033238421612 H
atom 14.0460019051024005 9.4507919999999999 6.0422303370731409 H
atom 6.0111191931446371 1.9632079999999998 2.3924946908765099 H
atom 6.0111191931446371 3.7437920000000000 8.1784946908765104 H
atom 14.0460019051024005 7.6702080000000006 0.2562303370731407 H
atom 16.3866679372678270 9.6334159999999986 6.1505623478348648 H
atom 3.6704531609792075 1.7805839999999999 2.2841626801147865 H
atom 3.6704531609792079 3.9264159999999997 8.0701626801147857 H
atom 16.3866679372678270 7.4875840000000000 0.3645623478348660 H
atom 18.4224657287399012 10.7291599999999985 7.0124729381717543 H
atom 1.6346553695071335 0.6848400000000000 1.4222520897778963 H
atom 1.6346553695071342 5.0221599999999995 7.2082520897778961 H
atom 18.4224657287399047 6.3918400000000002 1.2264729381717541 H
atom 19.3811961172361116 1.0843300000000000 8.2280071945077466 H
atom 0.6759249810109267 10.3296700000000001 0.2067178334419038 H
atom 0.6759249810109261 6.7913299999999994 5.9927178334419038 H
atom 19.3811961172361116 4.6226700000000003 2.4420071945077475 H
atom 19.1846363304732925 3.1730920000000000 -2.0750435107661591 H
atom 0.8724847677737473 8.2409079999999992 10.5097685387158126 H
atom 0.8724847677737475 8.8800919999999994 4.7237685387158095 H
atom 19.1846363304732925 2.5339079999999998 3.7109564892338396 H
atom 17.7866549899254700 4.8281219999999996 -1.1157674452142494 H
atom 2.2704661083215649 6.5858779999999992 9.5504924731638994 H
atom 2.2704661083215658 10.5351219999999994 3.7644924731639007 H
atom 17.7866549899254700 0.8788779999999999 4.6702325547857511 H
atom 15.4078804276733727 4.7710520000000001 -1.4032906335290780 H
atom 4.6492406705736631 6.6429479999999996 9.8380156614787300 H
atom 4.6492406705736640 10.4780519999999999 4.0520156614787304 H
atom 15.4078804276733710 0.9359480000000000 4.3827093664709205 H
atom 13.4322539994960390 3.6981359999999999 9.2048109512178797 H
atom 6.6248670987509959 7.7158640000000007 -0.7700859232682299 H
atom 6.6248670987509977 9.4051359999999988 5.0159140767317698 H
atom 13.4322539994960390 2.0088640000000000 3.4188109512178801 H
atom 12.4675064746703583 1.8833100000000000 8.1290818773735030 H
atom 7.5896146235766810 9.5306899999999999 0.3056431505761485 H
atom 7.5896146235766802 7.5903100000000006 6.0916431505761475 H
atom 12.4675064746703583 3.8236900000000000 2.3430818773735034 H
atom 13.2637741822707653 7.4191000000000003 8.0045320609831059 H
atom 6.7933469159762714 3.9948999999999995 0.4301929669665472 H
atom 6.7933469159762705 1.7121000000000000 6.2161929669665463 H
atom 13.2637741822707653 9.7019000000000002 2.2185320609831045 H
atom 15.5061603210547858 6.7456739999999993 8.0819487191078760 H
atom 4.5509607771922536 4.6683259999999995 0.3527763088417762 H
atom 4.5509607771922518 1.0386739999999999 6.1387763088417744 H
atom 15.5061603210547840 10.3753259999999994 2.2959487191078751 H
atom 17.7886607020352940 7.1451639999999994 8.7316908272885474 H
atom 2.2684603962117404 4.2688360000000003 -0.2969657993388942 H
atom 2.2684603962117400 1.4381640000000000 5.4890342006611048 H
atom 17.7886607020352940 9.9758359999999993 2.9456908272885451 H
atom 19.4032589504441830 8.3892899999999990 -1.6579318079615073 H
atom 0.6538621478028538 3.0247100000000002 10.0926568359111606 H
atom 0.6538621478028537 2.6822899999999996 4.3066568359111583 H
atom 19.4032589504441830 8.7317099999999996 4.1280681920384916 H
atom 19.9728811896343963 10.2840140000000009 -0.2195264171677371 H
atom 0.0842399086126377 1.1299859999999999 8.6542514451173904 H
atom 0.0842399086126383 4.5770140000000001 2.8682514451173891 H
atom 19.9728811896343963 6.8369859999999996 5.5664735828322618 H
atom 19.2809105117448745 0.8103939999999999 1.0111935693679983 H
atom 0.7762105865021620 10.6036060000000010 7.4235314585816532 H
atom 0.7762105865021612 6.5173939999999995 1.6375314585816521 H
atom 19.2809105117448745 4.8966059999999993 6.7971935693679990 H
atom 16.9542844643482198 1.5180620000000000 0.9700974661258394 H
atom 3.1028366338988178 9.8959379999999992 7.4646275618238116 H
atom 3.1028366338988174 7.2250620000000003 1.6786275618238113 H
atom 16.9542844643482233 4.1889379999999994 6.7560974661258406 H
atom 14.7179154618936732 1.1414000000000000 0.2205636255094531 H
atom 5.3392056363533626 10.2726000000000006 8.2141614024401974 H
atom 5.3392056363533618 6.8483999999999998 2.4281614024401970 H
atom 14.7179154618936749 4.5655999999999999 6.0065636255094530 H
atom 13.1013115013749637 11.2770320000000002 -0.9383560117432875 H
atom 6.9558095968720712 0.1369680000000000 9.3730810396929396 H
atom 6.9558095968720721 5.5700319999999994 3.5870810396929396 H
atom 13.1013115013749655 5.8439680000000003 4.8476439882567108 H
atom 12.1381685462371429 10.9802679999999988 7.0673695324145713 C
atom 7.9189525520098938 0.4337320000000000 1.3673554955350808 C
atom 7.9189525520098947 5.2732679999999998 7.1533554955350800 C
atom 12.1381685462371447 6.1407319999999999 1.2813695324145697 C
atom 11.4183184700210525 0.2214316000000000 6.1049275311614561 C
atom 8.6388026282259816 11.1925684000000008 2.3297974967881951 C
atom 8.6388026282259816 5.9284315999999997 8.1157974967881970 C
atom 11.4183184700210543 5.4855684000000000 0.3189275311614573 C
atom 10.0115119961900074 0.1963208000000000 6.0773351977010686 C
atom 10.0456091020570284 11.2176791999999992 2.3573898302485832 C
atom 10.0456091020570302 5.9033207999999995 8.1433898302485819 C
atom 10.0115119961900074 5.5106792000000002 0.2913351977010688 C
atom 9.3335813030692591 10.9574400000000001 7.0258166917563702 C
atom 10.7235397951777784 0.4565600000000000 1.4089083361932804 C
atom 10.7235397951777784 5.2504400000000002 7.1949083361932811 C
atom 9.3335813030692591 6.1635600000000004 1.2398166917563702 C
atom 10.0062971447044671 10.2680343999999995 8.0558056891938037 C
atom 10.0508239535425723 1.1459656000000000 0.3789193387558492 C
atom 10.0508239535425723 4.5610343999999996 6.1649193387558485 C
atom 10.0062971447044653 6.8529656000000001 2.2698056891938005 C
atom 9.2643842352803087 9.6334159999999986 9.0756266904099441 C
atom 10.7927368629667306 1.7805839999999999 -0.6409016624602932 C
atom 10.7927368629667306 3.9264159999999997 5.1450983375397072 C
atom 9.2643842352803087 7.4875840000000000 3.2896266904099445 C
atom 9.8773298560427367 8.9930906000000004 -1.4836508327359144 C
atom 10.1797912422042991 2.4209094000000002 9.9183758606855665 C
atom 10.1797912422043009 3.2860905999999996 4.1323758606855652 C
atom 9.8773298560427367 8.1279094000000001 4.3023491672640848 C
atom 11.2791220495992217 8.9086269999999992 -1.4807325805325133 C
atom 8.7779990486478141 2.5053730000000001 9.9154576084821642 C
atom 8.7779990486478141 3.2016270000000002 4.1294576084821646 C
atom 11.2791220495992217 8.2123729999999995 4.3052674194674863 C
atom 12.0541292088354872 9.4690543999999992 9.1206583145474589 C
atom 8.0029918894115486 1.9449455999999998 -0.6859332865978096 C
atom 8.0029918894115486 3.7620543999999998 5.1000667134021906 C
atom 12.0541292088354872 7.6519455999999995 3.3346583145474611 C
atom 11.4367710214314435 10.2383579999999998 8.0785388381871730 C
atom 8.6203500768155923 1.1756419999999999 0.3561861897624799 C
atom 8.6203500768155923 4.5313580000000000 6.1421861897624801 C
atom 11.4367710214314453 6.8826419999999997 2.2925388381871707 C
atom 13.6229972211403698 11.1628919999999994 7.0653998662336832 C
atom 6.4341238771066669 0.2511080000000000 1.3693251617159683 C
atom 6.4341238771066669 5.4558919999999995 7.1553251617159699 C
atom 13.6229972211403716 5.9581080000000002 1.2793998662336825 C
atom 14.4567717451944979 10.2269439999999996 6.4663173456455496 C
atom 5.6003493530525379 1.1870559999999999 1.9684076823041012 C
atom 5.6003493530525379 4.5199439999999997 7.7544076823041017 C
atom 14.4567717451944997 6.8940560000000000 0.6803173456455489 C
atom 15.8292805419475435 10.3171146000000000 6.5501912193081449 C
atom 4.2278405562994923 1.0968854000000001 1.8845338086415069 C
atom 4.2278405562994941 4.6101145999999993 7.6705338086415082 C
atom 15.8292805419475435 6.8038853999999995 0.7641912193081449 C
atom 16.4362090263804994 11.3626369999999994 7.2375244786539010 C
atom 3.6209120718665369 0.0513630000000000 1.1972005492957505 C
atom 3.6209120718665377 5.6556369999999996 6.9832005492957512 C
atom 16.4362090263804994 5.7583629999999992 1.4515244786539003 C
atom 15.6160733446731790 0.9644830000000001 7.7881856522610393 C
atom 4.4410477535738604 10.4495170000000002 0.6465393756886123 C
atom 4.4410477535738595 6.6714830000000003 6.4325393756886129 C
atom 15.6160733446731790 4.7425169999999994 2.0021856522610388 C
atom 17.8472274956421764 0.0273936000000000 7.4172083843701584 C
atom 2.2098936026048599 11.3866063999999998 1.0175166435794931 C
atom 2.2098936026048590 5.7343935999999998 6.8035166435794938 C
atom 17.8472274956421764 5.6796063999999999 1.6312083843701577 C
atom 18.4118354545578278 1.0398153999999999 8.1019036939069391 C
atom 1.6452856436892063 10.3741845999999995 0.3328213340427104 C
atom 1.6452856436892054 6.7468153999999991 6.1188213340427104 C
atom 18.4118354545578313 4.6671845999999997 2.3159036939069408 C
atom 17.6193785999660939 2.0853378000000000 8.6667506280526503 C
atom 2.4377424982809464 9.3286622000000001 -0.2320256001029989 C
atom 2.4377424982809459 7.7923377999999994 5.5539743998970010 C
atom 17.6193785999660939 3.6216622000000003 2.8807506280526489 C
atom 16.2171852639876413 2.0419646000000000 8.4961011213486888 C
atom 3.8399358342593963 9.3720353999999997 -0.0613760933990388 C
atom 3.8399358342593968 7.7489645999999990 5.7246239066009608 C
atom 16.2171852639876413 3.6650353999999998 2.7101011213486901 C
atom 18.1811785619279931 3.1388500000000001 -2.1819272439144801 C
atom 1.8759425363190465 8.2751500000000000 10.6166522718641314 C
atom 1.8759425363190465 8.8458500000000004 4.8306522718641309 C
atom 18.1811785619279931 2.5681500000000002 3.6040727560855195 C
atom 17.3831057134287441 4.1158883999999993 -1.6405030727765968 C
atom 2.6740153848182957 7.2981115999999995 10.0752281007262496 C
atom 2.6740153848182961 9.8228884000000001 4.2892281007262483 C
atom 17.3831057134287406 1.5911115999999998 4.1454969272234026 C
atom 16.0162129105832030 4.0862119999999997 -1.7900585834313651 C
atom 4.0409081876638311 7.3277880000000000 10.2247836113810173 C
atom 4.0409081876638320 9.7932119999999987 4.4387836113810160 C
atom 16.0162129105832030 1.6207879999999999 3.9959414165686336 C
atom 15.4088832837282848 3.0578106000000003 9.0622693027223189 C
atom 4.6482378145187520 8.3561893999999999 -0.6275442747726678 C
atom 4.6482378145187520 8.7648106000000006 5.1584557252273324 C
atom 15.4088832837282848 2.6491894000000000 3.2762693027223193 C
atom 13.9960596735677640 2.9756297999999997 8.8782389517535449 C
atom 6.0610614246792736 8.4383701999999996 -0.4435139238038946 C
atom 6.0610614246792744 8.6826298000000008 5.3424860761961046 C
atom 13.9960596735677640 2.7313702000000002 3.0922389517535454 C
atom 13.4226265813688812 1.9415214000000001 8.2319544432044651 C
atom 6.6344945168781573 9.4724785999999987 0.2027705847451862 C
atom 6.6344945168781555 7.6485213999999999 5.9887705847451862 C
atom 13.4226265813688812 3.7654786000000002 2.4459544432044655 C
atom 14.2002411663479204 0.8754538000000001 7.6798438925380728 C
atom 5.8568799318991180 10.5385461999999990 0.7548811354115782 C
atom 5.8568799318991172 6.5824537999999997 6.5408811354115777 C
atom 14.2002411663479204 4.8315462000000000 1.8938438925380741 C
atom 13.5096744869352747 9.1152204000000001 9.1683998698257678 C
atom 6.5474466113117620 2.2987796000000000 -0.7336748418761158 C
atom 6.5474466113117638 3.4082203999999998 5.0523251581238844 C
atom 13.5096744869352747 8.0057796000000003 3.3823998698257673 C
atom 13.9202437558163918 7.9544165999999992 8.5278942511478970 C
atom 6.1368773424306466 3.4595833999999996 -0.0931692231982453 C
atom 6.1368773424306466 2.2474165999999998 5.6928307768017543 C
atom 13.9202437558163918 9.1665834000000004 2.7418942511478956 C
atom 15.2369937559163091 7.5469368000000001 8.5603153492327895 C
atom 4.8201273423307294 3.8670631999999996 -0.1255903212831399 C
atom 4.8201273423307276 1.8399368000000000 5.6604096787168601 C
atom 15.2369937559163091 9.5740631999999994 2.7743153492327908 C
atom 16.1943201459356381 8.2877054000000001 -2.3409719851831721 C
atom 3.8628009523113969 3.1262945999999996 10.7756970131328256 C
atom 3.8628009523113969 2.5807053999999998 4.9896970131328233 C
atom 16.1943201459356381 8.8332946000000003 3.4450280148168271 C
atom 15.7901691558059607 9.4507919999999999 -1.6343526944963576 C
atom 4.2669519424410742 1.9632079999999998 10.0690777224460071 C
atom 4.2669519424410751 3.7437920000000000 4.2830777224460084 C
atom 15.7901691558059607 7.6702080000000006 4.1516473055036425 C
atom 17.5814706410904016 7.9224574000000008 -2.3160911222501737 C
atom 2.4756504571566320 3.4915425999999998 10.7508161501998245 C
atom 2.4756504571566325 2.2154574000000000 4.9648161501998267 C
atom 17.5814706410904016 9.1985425999999997 3.4699088777498259 C
atom 18.4792273814479380 8.6449635999999987 -1.6314319499991479 C
atom 1.5778937167990947 2.7690364000000001 10.0661569779487987 C
atom 1.5778937167990947 2.9379636000000002 4.2801569779487991 C
atom 18.4792273814479380 8.4760363999999999 4.1545680500008517 C
atom 18.1031563608558095 9.8103330000000000 -0.9014320442732041 C
atom 1.9539647373912263 1.6036670000000002 9.3361570722228571 C
atom 1.9539647373912268 4.1033330000000001 3.5501570722228548 C
atom 18.1031563608558095 7.3106669999999996 4.8845679557267969 C
atom 16.7505041139900293 10.2132471999999996 -0.9178226201581284 C
atom 3.3066169842570066 1.2007528000000001 9.3525476481077785 C
atom 3.3066169842570075 4.5062471999999998 3.5665476481077802 C
atom 16.7505041139900328 6.9077527999999990 4.8681773798418710 C
atom 19.0261850737971372 10.5796365999999988 -0.1860098384869607 C
atom 1.0309360244498980 0.8343634000000000 8.6207348664366137 C
atom 1.0309360244498984 4.8726365999999999 2.8347348664366123 C
atom 19.0261850737971407 6.5413634000000007 5.5999901615130376 C
atom 18.6224352260894257 0.2933398000000000 0.4846735067004125 C
atom 1.4346858721576123 11.1206601999999997 7.9500515212492386 C
atom 1.4346858721576115 6.0003397999999990 2.1640515212492386 C
atom 18.6224352260894257 5.4136601999999998 6.2706735067004118 C
atom 17.3139086456397884 0.6996782000000000 0.4741101258769770 C
atom 2.7432124526072492 10.7143217999999987 7.9606149020726731 C
atom 2.7432124526072479 6.4066782000000000 2.1746149020726739 C
atom 17.3139086456397884 5.0073217999999997 6.2601101258769765 C
atom 16.3505651192909873 11.3786165999999991 -0.2211197572154442 C
atom 3.7065559789560516 0.0353834000000000 8.6558447851650975 C
atom 3.7065559789560525 5.6716166000000001 2.8698447851650952 C
atom 16.3505651192909873 5.7423833999999996 5.5648802427845538 C
atom 14.9756494680061483 0.3332888000000000 -0.2479143578813937 C
atom 5.0814716302408884 11.0807111999999996 8.6826393858310436 C
atom 5.0814716302408875 6.0402887999999999 2.8966393858310440 C
atom 14.9756494680061500 5.3737111999999998 5.5380856421186069 C
atom 14.0640533140908222 11.0282067999999995 -0.9246228104017041 C
atom 5.9930677841562137 0.3857931999999999 9.3593478383513560 C
atom 5.9930677841562146 5.3212067999999997 3.5733478383513555 C
atom 14.0640533140908239 6.0927932000000000 4.8613771895982936 C
atom 14.4337060559315145 9.8525647999999997 -1.6570903881365922 C
atom 5.6234150423155222 1.5614352000000000 10.0918154160862432 C
atom 5.6234150423155214 4.1455647999999998 4.3058154160862436 C
atom 14.4337060559315145 7.2684351999999999 4.1289096118634063 C
