#=======================================================
# FHI-aims file: pahs_geometry_fix/LIMCUF.in
# Created using the Atomic Simulation Environment (ASE)
# Tue May 25 14:20:53 2021
#=======================================================
lattice_vector -0.0000000000000009 -5.5469999999999997 -0.0000000000000003 
lattice_vector 0.0000000000000000 0.0000000000000000 -8.0340000000000007 
lattice_vector 30.0630384067599117 0.0000000000000000 2.4512900170545544 
atom 13.6185563982622391 -4.4653349999999996 0.5239523777257125 H
atom 16.4444820084976726 -1.0816650000000003 -6.1066623606711596 H
atom 16.4444820084976726 -1.6918350000000002 -2.0896623606711593 H
atom 13.6185563982622391 -3.8551650000000000 -3.4930476222742874 H
atom 14.2498802048041977 -1.0705709999999997 -5.4661385319161413 H
atom 15.8131582019557140 -4.4764290000000004 -0.1165714510293052 H
atom 15.8131582019557140 -3.8440710000000000 -4.1335714510293053 H
atom 14.2498802048041977 -1.7029290000000001 -1.4491385319161418 H
atom 11.6945219402296061 -4.4542409999999997 -6.8876321833657803 H
atom 18.3685164665303056 -1.0927590000000003 1.3049222004203327 H
atom 18.3685164665303056 -1.6807410000000007 -2.7120777995796672 H
atom 11.6945219402296061 -3.8662590000000003 -2.8706321833657795 H
atom 9.4999201365361330 -4.4764290000000004 -6.1828363546107612 H
atom 20.5631182702237822 -1.0705709999999997 0.6001263716653150 H
atom 20.5631182702237822 -1.7029290000000001 -3.4168736283346850 H
atom 9.4999201365361330 -3.8440710000000000 -2.1658363546107617 H
atom 10.1011809046713310 -1.0816650000000003 -4.1815485542696713 H
atom 19.9618575020885807 -4.4653349999999996 -1.4011614286757774 H
atom 19.9618575020885807 -3.8551650000000000 -5.4181614286757762 H
atom 10.1011809046713310 -1.6918350000000002 -0.1645485542696702 H
atom 12.3258457467715630 -1.0761179999999997 -4.8597910930076331 H
atom 17.7371926599883487 -4.4708820000000005 -0.7229188899378135 H
atom 17.7371926599883487 -3.8496179999999995 -4.7399188899378135 H
atom 12.3258457467715630 -1.6973820000000002 -0.8427910930076328 H
atom 7.5758856785034974 -4.4653349999999996 -5.5845229157022533 H
atom 22.4871527282564152 -1.0816650000000003 0.0018129327568064 H
atom 22.4871527282564152 -1.6918350000000002 -4.0151870672431933 H
atom 7.5758856785034974 -3.8551650000000000 -1.5675229157022537 H
atom 5.3812838748100233 -4.4653349999999996 -4.9038290869472361 H
atom 24.6817545319498848 -1.0816650000000003 -0.6788808959982116 H
atom 24.6817545319498848 -1.6918350000000002 -4.6958808959982115 H
atom 5.3812838748100233 -3.8551650000000000 -0.8868290869472352 H
atom 5.9825446429452231 -1.0872120000000003 -2.9025412866061444 H
atom 24.0804937638146903 -4.4597879999999996 -2.6801686963393032 H
atom 24.0804937638146903 -3.8607120000000004 1.3368313036606969 H
atom 5.9825446429452231 -1.6862880000000002 -6.9195412866061439 H
atom 8.2072094850454569 -1.0872120000000003 -3.5807838253441080 H
atom 21.8558289217144548 -4.4597879999999996 -2.0019261576013396 H
atom 21.8558289217144548 -3.8607120000000004 -6.0189261576013395 H
atom 8.2072094850454569 -1.6862880000000002 0.4362161746558929 H
atom 3.4271863783706293 -4.4542409999999997 -4.3722389380557818 H
atom 26.6358520283892837 -1.0927590000000003 -1.2104710448896649 H
atom 26.6358520283892837 -1.6807410000000007 -5.2274710448896666 H
atom 3.4271863783706298 -3.8662590000000003 -0.3552389380557812 H
atom 1.2025215362703958 -4.4542409999999997 -3.6457923993178181 H
atom 28.8605168704895156 -1.0927590000000003 -1.9369175836276280 H
atom 28.8605168704895156 -1.6807410000000007 2.0800824163723726 H
atom 1.2025215362703958 -3.8662590000000003 -7.6627923993178184 H
atom 0.4208825376946383 -2.7235769999999997 -2.3357119397612371 H
atom 29.6421558690652738 -2.8234230000000005 -3.2469980431842100 H
atom 29.6421558690652702 -5.4970770000000000 0.7700019568157896 H
atom 0.4208825376946388 -0.0499230000000000 -6.3527119397612362 H
atom 1.8639083812191146 -1.0927590000000003 -1.5512280189426175 H
atom 28.1991300255407964 -4.4542409999999997 -4.0314819640028299 H
atom 28.1991300255407964 -3.8662590000000003 -0.0144819640028280 H
atom 1.8639083812191144 -1.6807410000000007 -5.5682280189426177 H
atom 4.1186362617261079 -1.0872120000000003 -2.2993252676635261 H
atom 25.9444021450338020 -4.4597879999999996 -3.2833847152819207 H
atom 25.9444021450338020 -3.8607120000000004 0.7336152847180796 H
atom 4.1186362617261079 -1.6862880000000002 -6.3163252676635269 H
atom 13.6786824750757603 -2.7718359000000001 -6.3819918422401782 C
atom 16.3843559316841514 -2.7751641000000005 0.7992818592947317 C
atom 16.3843559316841514 -5.5453358999999995 -3.2177181407052680 C
atom 13.6786824750757603 -0.0016641000000004 -2.3649918422401779 C
atom 14.1867478241500020 -3.7619753999999999 0.8370105590480438 C
atom 15.8762905826099097 -1.7850246000000003 -6.4197205419934917 C
atom 15.8762905826099097 -0.9884754000000007 -2.4027205419934901 C
atom 14.1867478241500020 -4.5585246000000001 -3.1799894409519571 C
atom 14.5565231965531492 -1.7761494000000002 -6.0163697737421860 C
atom 15.5065152102067625 -3.7708506000000002 0.4336597907967383 C
atom 15.5065152102067625 -4.5496493999999998 -3.5833402092032625 C
atom 14.5565231965531492 -0.9973506000000003 -1.9993697737421852 C
atom 12.2597070622766910 -2.7685076999999998 -5.9425433310451545 C
atom 17.8033313444832189 -2.7784923000000004 0.3598333480997064 C
atom 17.8033313444832189 -5.5420076999999992 -3.6571666519002934 C
atom 12.2597070622766910 -0.0049923000000007 -1.9255433310451533 C
atom 11.3818663407993022 -3.7592018999999994 -6.3258401995431468 C
atom 18.6811720659606060 -1.7877981000000007 0.7431302165977005 C
atom 18.6811720659606060 -0.9857018999999998 -3.2738697834022998 C
atom 11.3818663407993022 -4.5612981000000001 -2.3088401995431456 C
atom 10.0620989547425417 -3.7686317999999996 -5.9128486312918422 C
atom 20.0009394520173700 -1.7783682000000005 0.3301386483463944 C
atom 20.0009394520173700 -0.9951318000000006 -3.6868613516536057 C
atom 10.0620989547425417 -4.5518681999999995 -1.8958486312918419 C
atom 9.5540336056683000 -2.7696170999999996 -5.1002612325800625 C
atom 20.5090048010916135 -2.7773828999999992 -0.4824487503653842 C
atom 20.5090048010916099 -5.5431170999999999 -4.4994487503653833 C
atom 9.5540336056683000 -0.0038829000000002 -1.0832612325800628 C
atom 10.4318743271456889 -1.7844699000000004 -4.7290153640820707 C
atom 19.6311640796142228 -3.7625301000000007 -0.8536946188633774 C
atom 19.6311640796142228 -4.5579698999999998 -4.8706946188633768 C
atom 10.4318743271456889 -0.9890301000000000 -0.7120153640820697 C
atom 11.7546480170431256 -1.7839152000000005 -5.1305142033316704 C
atom 18.3083903897167843 -3.7630848000000006 -0.4521957796137768 C
atom 18.3083903897167843 -4.5574151999999994 -4.4691957796137771 C
atom 11.7546480170431256 -0.9895848000000006 -1.1135142033316696 C
atom 8.1440771043912594 -2.7773828999999992 -4.6568637343799208 C
atom 21.9189613023686505 -2.7696170999999996 -0.9258462485655243 C
atom 21.9189613023686505 -0.0038829000000002 -4.9428462485655258 C
atom 8.1440771043912576 -5.5431170999999999 -0.6398637343799217 C
atom 7.2602237752325181 -3.7575377999999997 -5.0318134608813256 C
atom 22.8028146315273901 -1.7894622000000004 -0.5508965220641212 C
atom 22.8028146315273901 -0.9840378000000006 -4.5678965220641219 C
atom 7.2602237752325181 -4.5629621999999994 -1.0148134608813253 C
atom 5.9434626930164338 -3.7586471999999995 -4.6330379636283148 C
atom 24.1195757137434761 -1.7883528000000006 -0.9496720193171316 C
atom 24.1195757137434761 -0.9851472000000004 -4.9666720193171328 C
atom 5.9434626930164338 -4.5618527999999996 -0.6160379636283150 C
atom 5.4353973439421921 -2.7668436000000001 -3.8244675649165383 C
atom 24.6276410628177196 -2.7801563999999996 -1.7582424180289098 C
atom 24.6276410628177196 -5.5403435999999999 -5.7752424180289106 C
atom 5.4353973439421921 -0.0066563999999999 0.1925324350834636 C
atom 6.3072254577382294 -1.7905715999999998 -3.4545153544219547 C
atom 23.7558129490216814 -3.7564283999999999 -2.1281946285234916 C
atom 23.7558129490216814 -4.5640715999999992 1.8888053714765085 C
atom 6.3072254577382294 -0.9829284000000007 -7.4715153544219550 C
atom 7.6330054514763432 -1.7933451000000007 -3.8477350646698492 C
atom 22.4300329552835684 -3.7536549000000003 -1.7349749182755980 C
atom 22.4300329552835684 -4.5668451000000001 -5.7519749182755993 C
atom 7.6330054514763432 -0.9801548999999997 0.1692649353301512 C
atom 4.0074030196210959 -2.7751641000000005 -3.3777204407266281 C
atom 26.0556353871388175 -2.7718359000000001 -2.2049895422188182 C
atom 26.0556353871388175 -0.0016641000000004 1.8120104577811815 C
atom 4.0074030196210950 -5.5453358999999995 -7.3947204407266289 C
atom 3.1295622981437061 -3.7653036000000002 -3.8003839092246210 C
atom 26.9334761086162047 -1.7816964000000002 -1.7823260737208253 C
atom 26.9334761086162047 -0.9918036000000003 -5.7993260737208256 C
atom 3.1295622981437061 -4.5551963999999998 0.2166160907753789 C
atom 1.7887507852022140 -3.7531002000000004 -3.3875014439852542 C
atom 28.2742876215576970 -1.7938998000000006 -2.1952085389601925 C
atom 28.2742876215576970 -0.9796002000000005 1.8217914610398076 C
atom 1.7887507852022140 -4.5673997999999996 -7.4045014439852546 C
atom 1.3378052091008155 -2.7457650000000005 -2.5831109942410722 C
atom 28.7252331976590973 -2.8012349999999997 -2.9995989887043741 C
atom 28.7252331976590938 -5.5192649999999999 1.0174010112956253 C
atom 1.3378052091008159 -0.0277350000000000 -6.6001109942410725 C
atom 2.1885891960121215 -1.7639460000000002 -2.1409618867584284 C
atom 27.8744492107477910 -3.7830539999999995 -3.4417480961870179 C
atom 27.8744492107477910 -4.5374460000000001 0.5752519038129822 C
atom 2.1885891960121215 -1.0095540000000010 -6.1579618867584287 C
atom 3.5263944051129372 -1.7850246000000003 -2.5661404809995010 C
atom 26.5366440016469731 -3.7619753999999999 -3.0165695019459458 C
atom 26.5366440016469731 -4.5585246000000001 1.0004304980540542 C
atom 3.5263944051129377 -0.9884754000000007 -6.5831404809995009 C
