#=======================================================
# FHI-aims file: pahs_geometry_fix/KAGGIK.in
# Created using the Atomic Simulation Environment (ASE)
# Tue May 25 14:20:52 2021
#=======================================================
lattice_vector 8.0363656040267859 0.0000000000000000 -1.6702495287876011 
lattice_vector -3.0153342359558977 11.1372928843648573 -3.1201769089825988 
lattice_vector 0.0000000000000000 0.0000000000000000 12.3409999999999993 
atom 2.3564635805110670 2.6350834964407253 8.3336296233378526 H
atom 2.6645677875598213 8.5022093879241325 -0.7830560611080535 H
atom 2.8012126675953617 0.4165347538752457 7.8114744044656659 H
atom 2.2198187004755261 10.7207581304896120 -0.2609008422358667 H
atom -1.0032470019702284 10.5949067208962884 2.7603103908532507 H
atom 6.0242783700411175 0.5423861634685686 4.7902631713765471 H
atom -2.2431966244803210 10.8499507279482437 0.5812531959819034 H
atom 7.2642279925512092 0.2873421564166133 6.9693203662478957 H
atom 7.7138475278107954 1.0457918018418602 0.5378320821499922 H
atom -2.6928161597399076 10.0915010825229974 7.0127414800798080 H
atom -0.5385444963771275 3.3456427824632033 2.5516833530760334 H
atom 5.5595758644480160 7.7916501019016540 4.9988902091537648 H
atom 1.6068421078455459 7.4430528346210343 4.3506368091023573 H
atom 3.4141892602253421 3.6942400497438230 3.1999367531274423 H
atom 1.5500407634771929 9.7128331244545922 4.8107156377538436 H
atom 3.4709906045936951 1.4244597599102653 2.7398579244759551 H
atom 0.6362861220371867 10.5024671899560591 6.7860480288643776 H
atom 4.3847452460337006 0.6348256944087969 0.7645255333654222 H
atom -0.2223228322761232 9.9990615515827699 -3.2288807831857036 H
atom 5.2433542003470102 1.1382313327820883 10.7794543454155036 H
atom -0.7110005110172406 8.4587739456751088 -1.6082680947790473 H
atom 5.7320318790881286 2.6785189386897481 9.1588416570088462 H
atom -0.4009526864116599 6.1856524679762419 -1.9507850055617701 H
atom 5.4219840544825484 4.9516404163886154 9.5013585677915682 H
atom 0.3520346537314650 3.0215475595281855 9.0731211732015460 H
atom 4.6689967143394231 8.1157453248366718 -1.5225476109717464 H
atom -0.5107386224487900 4.1363905772531080 9.8214613817217629 H
atom 5.5317699905196784 7.0009023071117502 -2.2708878194919624 H
atom 1.5153034492368027 4.9672326264267266 -1.5220191087017463 H
atom 3.5057279188340851 6.1700602579381316 9.0725926709315470 H
atom 2.3053632303375169 3.7499265141656473 10.1473746294505229 H
atom 2.7156681377333713 7.3873663701992101 -2.5968010672207220 H
atom 1.7814627937479179 3.2866151301760689 0.0839472507902367 H
atom 3.2395685743229694 7.8506777541887880 7.4666263114395637 H
atom 0.2226876766694103 3.4280587498075032 -0.2443767851072285 H
atom 4.7983436914014774 7.7092341345573550 7.7949503473370276 H
atom 0.2556312224696813 1.4868286000627084 10.8188944462431174 H
atom 4.7654001456012072 9.6504642843021493 -3.2683208840133182 H
atom 0.9439982081955078 1.1437999792242708 -0.1182135950433787 H
atom 4.0770331598753806 9.9934929051405863 7.6687871572731776 H
atom 1.8496585959577396 1.3932753398340436 10.9275583242592322 H
atom 3.1713727721131484 9.7440175445308146 -3.3769847620294327 H
atom -0.3529988747558749 6.6021872218514872 3.8301999874665280 H
atom 5.3740302428267634 4.5351056625133701 3.7203735747632702 H
atom -0.9908894361198828 5.3102612472651636 3.1435685759965057 H
atom 6.0119208041907717 5.8270316370996937 4.4070049862332930 H
atom 1.6440827821941524 6.3081626897042558 2.5847738202949473 H
atom 3.3769485858767361 4.8291301946606016 4.9657997419348519 H
atom 1.0571296460968918 4.9705738142920355 1.9337704364135733 H
atom 3.9639017219739965 6.1667190700728209 5.6168031258162259 H
atom 0.8653920334965065 6.7503132172135398 0.3974629583689215 H
atom 4.1556393345743823 4.3869796671513166 7.1531106038608776 H
atom -0.5910174849233421 6.2168368880524634 0.7870756384436781 H
atom 5.6120488529942296 4.9204559963123939 6.7634979237861206 H
atom -0.9080268680663879 8.0288744403386261 2.2228418655303970 H
atom 5.9290582361372763 3.1084184440262317 5.3277316966994022 H
atom -0.5060921960203513 8.5835116259799964 0.7766136128353551 H
atom 5.5271235640912399 2.5537812583848618 6.7739599493944436 H
atom 0.5839473018470600 8.5378487251540989 1.9476178763517669 H
atom 4.4370840662238287 2.5994441592107576 5.6029556858780332 H
atom 0.5620007805464678 4.8937264933899183 8.2280932768337163 C
atom 4.4590305875244205 6.2435663909749390 -0.6775197146039174 C
atom 0.9140587639655615 4.4660544466303085 6.9758475339922938 C
atom 4.1069726041053265 6.6712384377345488 0.5747260282375060 C
atom 1.3174955499533374 3.0738928360847009 6.6495162241701191 C
atom 3.7035358181175511 8.0634000482801564 0.9010573380596805 C
atom 2.0370730349070478 2.2742352069873037 7.5143837057329659 C
atom 2.9839583331638408 8.8630576773775527 0.0361898564968338 C
atom 2.2998639188714578 0.9444424365941400 7.2012376479638185 C
atom 2.7211674491994304 10.1928504477707182 0.3493359142659807 C
atom 1.8588539464968425 0.3797816873568416 6.0488378574266406 C
atom 3.1621774215740461 10.7575111970080162 1.5017357048031597 C
atom 1.1645916920495947 1.1749843993004925 5.0913524980410232 C
atom 3.8564396760212940 9.9623084850643639 2.4592210641887768 C
atom 0.6638070076589154 0.6381668822741063 3.8877084871685077 C
atom 4.3572243604119736 10.4991260020907511 3.6628650750612914 C
atom 0.0328314717702680 1.4311421356408842 3.0005039168401444 C
atom 4.9881998963006193 9.7061507487239744 4.5500696453896552 C
atom -0.1159507728651292 2.8088252654368167 3.2121382713458226 C
atom 5.1369821409360172 8.3284676189280411 4.3384352908839769 C
atom 0.3572005888029234 3.4002155175965911 4.3945271146103835 C
atom 4.6638307792679647 7.7370773667682666 3.1560464476194161 C
atom 0.3710436011320092 4.8480635925640225 4.6042912152388711 C
atom 4.6499877669388789 6.2892292918008348 2.9462823469909276 C
atom 0.7383290836156866 5.3525829602257504 5.8169287558069778 C
atom 4.2827022844552021 5.7847099241391069 1.7336448064228220 C
atom 0.8418778572862771 6.8015447644816183 6.1039338440221469 C
atom 4.1791535107846114 4.3357481198832390 1.4466397182076534 C
atom 1.2716808578082583 7.7370773667682666 5.1889503737206626 C
atom 3.7493505102626288 3.4002155175965911 2.3616231885091374 C
atom 1.2286798211375325 9.0980545572376510 5.4594999495270899 C
atom 3.7923515469333555 2.0392383271272054 2.0910736127027088 C
atom 0.7317598985949616 9.5680483169578494 6.6449304622922547 C
atom 4.2892714694759269 1.5692445674070084 0.9056430999375450 C
atom 0.3576070327464197 8.6436530075555655 7.6704791341246059 C
atom 4.6634243353244678 2.4936398768092913 -0.1199055718948072 C
atom -0.1072616025526449 9.0724387836036122 8.9359235526781582 C
atom 5.1282929706235327 2.0648541007612446 -1.3853499904483590 C
atom -0.3863861422680157 8.1591807670856955 -2.4499207966496797 C
atom 5.4074175103389033 2.9781121172791631 10.0004943588794788 C
atom -0.2140992253752860 6.7926349301741267 9.6831538484906581 C
atom 5.2351305934461738 4.3446579541907306 -2.1325802862608598 C
atom 0.2284790176061685 6.2947979382430175 8.4505091993696162 C
atom 4.7925523504647192 4.8424949461218398 -0.8999356371398168 C
atom 0.9458930666591646 2.5526675290964254 5.3792230234471532 C
atom 4.0751383014117240 8.5846253552684324 2.1713505387826459 C
atom 0.4694247110184070 7.2481502091446499 7.4058809602229951 C
atom 4.5516066570524814 3.8891426752202083 0.1446926020068029 C
atom 0.3737922089896539 3.9503977860842152 9.4151193350136193 C
atom 4.6472391590812343 7.1868950982806421 -1.8645457727838193 C
atom 1.4311651333983573 4.0283588362747693 10.5180019098874435 C
atom 3.5898662346725319 7.1089340480900880 -2.9674283476576448 C
atom 1.0956809976217445 3.1451715105446354 -0.6157231199219216 C
atom 3.9253503704491437 7.9921213738202219 8.1662966821517209 C
atom 1.0302101065439027 1.6594566397703636 11.3945926023117945 C
atom 3.9908212615269854 9.4778362445944939 -3.8440190400819949 C
atom -0.1434141374511463 5.7034076860832430 3.4719633120423321 C
atom 5.1644455055220346 5.4338851982816143 4.0786102501874675 C
atom 0.8135916035420392 5.8671258914834077 2.2751312201933525 C
atom 4.2074397645288482 5.2701669928814505 5.2754423420364471 C
atom 0.2072231944796091 6.6879443770610969 1.1340298094773824 C
atom 4.8138081735912790 4.4493485073037604 6.4165437527524176 C
atom -0.1903875658721361 8.0823334461835774 1.5571288842947302 C
atom 5.2114189339430244 3.0549594381812804 5.9934446779350683 C
