#=======================================================
# FHI-aims file: pahs_geometry_fix/KUZXUA.in
# Created using the Atomic Simulation Environment (ASE)
# Tue May 25 14:20:53 2021
#=======================================================
lattice_vector -5.2407069169342577 0.0000000000000000 0.5520227357613351 
lattice_vector 0.0000000000000000 0.0000000000000000 -11.6838999999999995 
lattice_vector -0.0000000000000024 -14.6807999999999996 -0.0000000000000009 
atom -2.6324070843760796 -8.2652903999999996 -1.1224501998270806 H
atom -2.6082998325581803 -0.9248903999999976 -10.0094270644115824 H
atom -3.6491042262613251 -9.7186895999999994 0.3528269009106166 H
atom -1.5916026906729344 -2.3782895999999987 -11.4847041651492816 H
atom -0.4989152984921428 -10.6582607999999990 -0.7255951755555214 H
atom -4.7417916184421172 -3.3178607999999996 -10.4062820886831435 H
atom -1.3856429088374194 -10.3558363199999999 -2.8392816386647026 H
atom -3.8550640080968406 -3.0154363200000005 -8.2925956255739610 H
atom -2.0428275562209750 -10.2486664799999989 -4.7481422576002315 H
atom -3.1978793607132849 -2.9082664799999991 -6.3837350066384326 H
atom -2.6517976999687360 -10.2648153599999983 -6.9588525457047643 H
atom -2.5889092169655239 -2.9244153600000007 -4.1730247185338998 H
atom -2.3101036089846221 -9.5028818399999988 -9.2942359480764036 H
atom -2.9306033079496370 -2.1624818399999981 -1.8376413161622627 H
atom -1.1529555217255385 -8.2535457599999997 -10.8392215881325065 H
atom -4.0877513952087208 -0.9131457600000005 -0.2926556761061594 H
atom -4.5950518247679586 -6.6181046399999994 -10.8201597152844613 H
atom -0.6456550921663020 -13.9585046399999992 -0.3117175489542041 H
atom -2.8111151902435365 -5.3364708000000007 -10.1656590645376195 H
atom -2.4295917266907248 -12.6768707999999979 -0.9662181997010461 H
atom -1.2394271858549528 -4.5642607199999992 -8.3811677729924430 H
atom -4.0012797310793076 -11.9046607199999990 -2.7507094912462211 H
atom -0.5628519228787409 -4.5598564799999997 -6.1869256981792322 H
atom -4.6778549940555196 -11.9002564799999995 -4.9449515660594336 H
atom -0.0707495433786136 -4.4468143199999988 -4.2162775430672221 H
atom -5.1699573735556470 -11.7872143199999986 -6.9155997211714446 H
atom -5.0074954591306842 -4.0254753599999979 -1.4073961159800454 H
atom -0.2332114578035762 -11.3658753600000004 -9.7244811482586204 H
atom -1.3143692947671128 -4.8564086399999997 -0.4036856578710574 H
atom -3.9263376221671473 -12.1968086399999986 -10.7281916063676075 H
atom -2.9720048925934188 -6.3127439999999986 -1.0785003965497471 H
atom -2.2687020243408420 -13.6531439999999993 -10.0533768676889181 H
atom -3.4688239083187860 -7.3490616719999977 -3.5125025611995722 C
atom -1.7718830086154722 -0.0086616719999997 -7.6193747030390924 C
atom -4.0536868002486504 -8.3229859439999991 -2.6038140738886071 C
atom -1.1870201166856098 -0.9825859439999990 -8.5280631903500570 C
atom -3.4667276255520125 -8.6555060639999990 -1.3570438202938782 C
atom -1.7739792913822472 -1.3151060639999983 -9.7748334439447877 C
atom -4.0641682140825184 -9.5219668800000008 -0.4785770084170852 C
atom -1.1765387028517416 -2.1815668799999992 -10.6533002558215806 C
atom -0.0434978674105558 -10.1162456639999991 -1.3600977312931817 C
atom -5.1972090495237042 -2.7758456639999989 -9.7717795329454837 C
atom -0.5790981143212367 -9.9124761600000006 -2.6052674676983738 C
atom -4.6616088026130225 -2.5720761599999986 -8.5266097965402921 C
atom -5.2040219685157201 -9.0592280639999991 -2.9979050733889943 C
atom -0.0366849484185401 -1.7188280639999993 -8.1339721908496703 C
atom -0.4250213309633695 -8.9842091760000002 -4.9138781161297560 C
atom -4.8156855859708898 -1.6438091759999984 -6.2179991481089099 C
atom -1.5407678335786734 -9.7382150640000003 -5.3723687456861686 C
atom -3.6999390833555861 -2.3978150639999978 -5.7595085185524972 C
atom -1.9055210349972977 -9.7448214239999995 -6.6846068032771786 C
atom -3.3351858819369626 -2.4044214239999988 -4.4472704609614855 C
atom -1.1943571063693188 -8.9918431919999993 -7.6451559085199925 C
atom -4.0463498105649407 -1.6514431919999997 -3.4867213557186729 C
atom -1.5685435802384255 -8.9802453599999996 -9.0113146551866325 C
atom -3.6721633366958346 -1.6398453600000003 -2.1205626090520324 C
atom -0.8867276103452778 -8.2373968799999986 -9.9278787831091826 C
atom -4.3539793065889816 -0.8969968800000007 -1.2039984811294826 C
atom -5.0221694384980999 -7.4367060479999987 -8.9781860423199120 C
atom -0.2185374784361584 -0.0963060480000001 -2.1536912219187538 C
atom -4.3220109943956828 -6.6269131199999984 -9.9095345398176260 C
atom -0.9186959225385782 -13.9673131200000000 -1.2223427244210401 C
atom -3.2675807627085103 -5.8635115199999994 -9.5216989842528079 C
atom -1.9731261542257499 -13.2039115200000001 -1.6101782799858577 C
atom -2.8336502299863540 -5.8394350079999997 -8.1653384667738447 C
atom -2.4070566869479064 -13.1798350079999995 -2.9665387974648190 C
atom -1.7215722222129053 -5.0785291439999973 -7.7426815113024015 C
atom -3.5191346947213558 -12.4189291439999998 -3.3891957529362640 C
atom -1.3258988499843687 -5.0664908880000006 -6.4383739478523809 C
atom -3.9148080669498921 -12.4068908879999995 -4.6935033163862840 C
atom -2.0339183544621862 -5.7989160000000002 -5.4466095262510263 C
atom -3.2067885624720747 -13.1393159999999991 -5.6852677379876404 C
atom -1.7037538186953278 -5.6836717199999978 -4.0407620886039890 C
atom -3.5369530982389330 -13.0240717200000002 -7.0911151756346760 C
atom -0.6629494249921841 -4.8374704079999997 -3.5837246539261911 C
atom -4.5777574919420756 -12.1778704079999986 -7.5481526103124743 C
atom -0.4905301674250479 -4.5686649599999987 -2.2477221919327390 C
atom -4.7501767495092126 -11.9090649600000003 -8.8841550723059264 C
atom -1.3851188381457258 -5.0986418400000009 -1.3192614509382787 C
atom -3.8555880787885357 -12.4390418399999980 -9.8126158133003862 C
atom -2.3661791729958184 -5.9656898879999991 -1.7230040548037571 C
atom -2.8745277439384425 -13.3060898879999989 -9.4088732094349066 C
atom -2.4987690579942550 -6.3591353279999980 -3.0807277395889958 C
atom -2.7419378589400063 -13.6995353279999996 -8.0511495246496683 C
atom -3.8461548063380531 -7.3779828480000003 -4.8584674642247574 C
atom -1.3945521105962060 -0.0375828479999985 -6.2734098000139067 C
atom -4.9425106933606999 -8.2092097440000007 -5.2956327779034860 C
atom -0.2981962235735586 -0.8688097439999986 -5.8362444863351799 C
atom -0.0890920175878838 -8.2168437599999997 -7.2194445434920578 C
atom -5.1516148993463755 -0.8764437599999980 -3.9124327207466072 C
atom -4.6223035007360158 -7.4255486400000006 -7.6240793270585021 C
atom -0.6184034161982424 -0.0851486399999988 -3.5077979371801620 C
atom -3.5327605327053835 -6.6112046639999997 -7.2025538438232832 C
atom -1.7079463842288767 -13.9516046639999995 -3.9293234204153817 C
atom -3.1365630897851542 -6.5819898719999994 -5.8281980826468409 C
atom -2.1041438271491066 -13.9223898719999983 -5.3036791815918241 C
