# 
# This is the geometry file that corresponds to the current relaxation step.
# If you do not want this file to be written, set the "write_restart_geometry" flag to .false.
#  aims_uuid : 683F86BC-9AC5-4729-A3CD-79E367B38703                                
# 
lattice_vector     15.57222060      0.00000000     -0.22179280
lattice_vector      0.00000000     17.24290000      0.00000000
lattice_vector      0.00000000      0.00000000     18.24390000
atom       1.31551661     15.29314592      6.12746390 H
atom      14.25670399      1.94975408     11.89464331 H
atom      14.25670399      6.67169592      2.77269331 H
atom       1.31551661     10.57120408     15.24941390 H
atom       0.03730404     15.15187811      8.20008342 H
atom      15.53491656      2.09102189      9.82202377 H
atom      15.53491656      6.53042811      0.70007377 H
atom       0.03730404     10.71247189     17.32203342 H
atom       0.89103897     16.21166667     10.27638380 H
atom      14.68118162      1.03123333      7.74572340 H
atom      14.68118162      7.59021667     16.86767340 H
atom       0.89103897      9.65268333      1.15443380 H
atom       3.02938404      0.18603715     10.22889872 H
atom      12.54283656     17.05686285      7.79320849 H
atom      12.54283656      8.80748715     16.91515849 H
atom       3.02938404      8.43541285      1.10694872 H
atom       5.18513471      0.23306373     10.19572146 H
atom      10.38708590     17.00983627      7.82638574 H
atom      10.38708590      8.85451373     16.94833574 H
atom       5.18513471      8.38838627      1.07377146 H
atom       7.32276113      1.44512816     10.09152829 H
atom       8.24945947     15.79777183      7.93057891 H
atom       8.24945947     10.06657817     17.05252891 H
atom       7.32276113      7.17632184      0.96957829 H
atom       8.09192420      2.38539975      7.92137775 H
atom       7.48029640     14.85750025     10.10072946 H
atom       7.48029640     11.00684975      0.97877946 H
atom       8.09192420      6.23605025     17.04332775 H
atom       6.73808970      2.12731749      5.92402892 H
atom       8.83413090     15.11558251     12.09807829 H
atom       8.83413090     10.74876749      2.97612829 H
atom       6.73808970      6.49413251     15.04597892 H
atom       0.45982199      0.66223622     16.48233661 H
atom      15.11239861     16.58066378      1.53977058 H
atom      15.11239861      9.28368622     10.66172058 H
atom       0.45982199      7.95921378      7.36038661 H
atom      14.65844413      0.28022095     14.28743862 H
atom       0.91377647     16.96267905      3.73466858 H
atom       0.91377647      8.90167095     12.85661858 H
atom      14.65844413      8.34122905      5.16548862 H
atom       0.13929058     16.93634606     12.34783280 H
atom      15.43293002      0.30655394      5.67427440 H
atom      15.43293002      8.31489606     14.79622440 H
atom       0.13929058      8.92800394      3.22588280 H
atom       2.58366621     16.66839262     12.22271932 H
atom      12.98855440      0.57450737      5.79938789 H
atom      12.98855440      8.04694263     14.92133789 H
atom       2.58366621      9.19595738      3.10076932 H
atom       4.52839101      0.23894917     12.12879964 H
atom      11.04382957     17.00395082      5.89330756 H
atom      11.04382957      8.86039918     15.01525756 H
atom       4.52839101      8.38250083      3.00684964 H
atom       6.96980284     17.17706705     11.99616486 H
atom       8.60241776      0.06583295      6.02594234 H
atom       8.60241776      8.55561705     15.14789234 H
atom       6.96980284      8.68728295      2.87421486 H
atom       8.24645508     16.67611908     14.05416238 H
atom       7.32576552      0.56678092      3.96794482 H
atom       7.32576552      8.05466908     13.08989482 H
atom       8.24645508      9.18823092      4.93221238 H
atom       7.08981259     16.42323859     16.19351981 H
atom       8.48240801      0.81966141      1.82858739 H
atom       8.48240801      7.80178859     10.95053739 H
atom       7.08981259      9.44111141      7.07156981 H
atom       3.64272592      3.51871845      6.03409606 H
atom      11.92949467     13.72418155     11.98801114 H
atom      11.92949467     12.14016845      2.86606114 H
atom       3.64272592      5.10273155     15.15604606 H
atom       4.73991179      5.73840744      6.21464153 H
atom      10.83230882     11.50449257     11.80746567 H
atom      10.83230882     14.35985743      2.68551567 H
atom       4.73991179      2.88304256     15.33659153 H
atom       6.69575703      6.25545694      4.81336295 H
atom       8.87646356     10.98744306     13.20874425 H
atom       8.87646356     14.87690694      4.08679425 H
atom       6.69575703      2.36599306     13.93531295 H
atom       7.47764963      4.61904654      3.13525673 H
atom       8.09457097     12.62385347     14.88685048 H
atom       8.09457097     13.24049653      5.76490048 H
atom       7.47764963      4.00240346     12.25720673 H
atom       6.34661571      2.45706292      2.88514929 H
atom       9.22560489     14.78583707     15.13695793 H
atom       9.22560489     11.07851293      6.01500793 H
atom       6.34661571      6.16438708     12.00709929 H
atom       1.67498926      2.55883150      3.68555869 H
atom      13.89723134     14.68406850     14.33654851 H
atom      13.89723134     11.18028150      5.21459851 H
atom       1.67498926      6.06261850     12.80750869 H
atom       1.05965764      4.94157441      3.84638422 H
atom      14.51256295     12.30132559     14.17572300 H
atom      14.51256295     13.56302441      5.05377300 H
atom       1.05965764      3.67987559     12.96833422 H
atom       2.15014927      6.59096677      2.39887697 H
atom      13.42207133     10.65193323     15.62323023 H
atom      13.42207133     15.21241677      6.50128023 H
atom       2.15014927      2.03048323     11.52082697 H
atom       3.86222393      5.86756580      0.75480863 H
atom      11.70999667     11.37533420     17.26729857 H
atom      11.70999667     14.48901580      8.14534857 H
atom       3.86222393      2.75388420      9.87675863 H
atom       4.50880259      3.47942618      0.61617145 H
atom      11.06341801     13.76347382     17.40593575 H
atom      11.06341801     12.10087618      8.28398575 H
atom       4.50880259      5.14202382      9.73812145 H
atom       0.60354366      1.23728082      1.15040203 H
atom      14.96867694     16.00561919     16.87170518 H
atom      14.96867694      9.85873081      7.74975518 H
atom       0.60354366      7.38416918     10.27235203 H
atom      14.40367855      2.95292238      0.74663790 H
atom       1.16854205     14.28997762     17.27546930 H
atom       1.16854205     11.57437238      8.15351930 H
atom      14.40367855      5.66852762      9.86858790 H
atom      14.60559310      4.74695566     17.30184517 H
atom       0.96662749     12.49594434      0.72026203 H
atom       0.96662749     13.36840566      9.84221203 H
atom      14.60559310      3.87449434      8.17989517 H
atom       1.07107756      4.92889077     16.10734627 H
atom      14.50114304     12.31400923      1.91476093 H
atom      14.50114304     13.55034077     11.03671093 H
atom       1.07107756      3.69255923      6.98539627 H
atom       2.79540115      3.19641927     16.32464539 H
atom      12.77681945     14.04648073      1.69746181 H
atom      12.77681945     11.81786927     10.81941181 H
atom       2.79540115      5.42503073      7.20269539 H
atom       5.33305092     13.79538338     16.70069091 H
atom      10.23916968      3.44751662      1.32141629 H
atom      10.23916968      5.17393338     10.44336629 H
atom       5.33305092     12.06896662      7.57874091 H
atom       7.35024595     12.41323945     16.99589234 H
atom       8.22197464      4.82966055      1.02621487 H
atom       8.22197464      3.79178945     10.14816487 H
atom       7.35024595     13.45111055      7.87394234 H
atom       9.20945769     13.18953575      0.17527316 H
atom       6.36276291      4.05336425     17.84683404 H
atom       6.36276291      4.56808575      8.72488404 H
atom       9.20945769     12.67481425      9.29722316 H
atom       9.05996279     15.39846783      1.29214077 H
atom       6.51225781      1.84443217     16.72996643 H
atom       6.51225781      6.77701783      7.60801643 H
atom       9.05996279     10.46588217     10.41409077 H
atom       7.00177753     16.73544946      1.06623985 H
atom       8.57044308      0.50745054     16.95586735 H
atom       8.57044308      8.11399946      7.83391735 H
atom       7.00177753      9.12890054     10.18818985 H
atom       2.99224508     14.14575465      0.51634613 H
atom      12.57997552      3.09714536     17.50576107 H
atom      12.57997552      5.52430464      8.38381107 H
atom       2.99224508     11.71859535      9.63829613 H
atom       3.35361882     11.70196259      0.33925385 H
atom      12.21860178      5.54093741     17.68285335 H
atom      12.21860178      3.08051259      8.56090335 H
atom       3.35361882     14.16238741      9.46120385 H
atom       5.04718610     10.61348959      1.78737641 H
atom      10.52503450      6.62941041     16.23473079 H
atom      10.52503450      1.99203959      7.11278079 H
atom       5.04718610     15.25086041     10.90932641 H
atom       6.39667931     11.97459285      3.35399353 H
atom       9.17554129      5.26830715     14.66811366 H
atom       9.17554129      3.35314285      5.54616366 H
atom       6.39667931     13.88975715     12.47594353 H
atom       6.06719939     14.41817178      3.47926417 H
atom       9.50502121      2.82472821     14.54284304 H
atom       9.50502121      5.79672179      5.42089304 H
atom       6.06719939     11.44617822     12.60121417 H
atom       1.61084414     14.68625795      3.10828959 H
atom      13.96137646      2.55664204     14.91381761 H
atom      13.96137646      6.06480796      5.79186761 H
atom       1.61084414     11.17809205     12.23023959 H
atom       0.61842819     12.49062060      3.57510308 H
atom      14.95379240      4.75227940     14.44700412 H
atom      14.95379240      3.86917060      5.32505412 H
atom       0.61842819     13.37372940     12.69705308 H
atom       1.47432306     11.09132202      5.41274400 H
atom      14.09789755      6.15157798     12.60936320 H
atom      14.09789755      2.46987202      3.48741320 H
atom       1.47432306     14.77302798     14.53469400 H
atom       3.44200369     11.81785793      6.70124129 H
atom      12.13021691      5.42504207     11.32086592 H
atom      12.13021691      3.19640793      2.19891592 H
atom       3.44200369     14.04649207     15.82319129 H
atom       4.46561565     14.03190121      6.24702215 H
atom      11.10660495      3.21099879     11.77508504 H
atom      11.10660495      5.41045121      2.65313504 H
atom       4.46561565     11.83244879     15.36897215 H
atom       1.72384482     15.74104341      7.02853928 C
  constrain_relaxation .true.
atom      13.84837578      1.50185659     10.99356793 C
  constrain_relaxation .true.
atom      13.84837578      7.11959341      1.87161793 C
  constrain_relaxation .true.
atom       1.72384482     10.12330659     16.15048928 C
  constrain_relaxation .true.
atom       0.99817934     15.66517465      8.20101125 C
  constrain_relaxation .true.
atom      14.57404126      1.57772535      9.82109595 C
  constrain_relaxation .true.
atom      14.57404126      7.04372465      0.69914595 C
  constrain_relaxation .true.
atom       0.99817934     10.19917535     17.32296125 C
  constrain_relaxation .true.
atom       1.47468929     16.25833041      9.35818521 C
  constrain_relaxation .true.
atom      14.09753131      0.98456959      8.66392199 C
  constrain_relaxation .true.
atom      14.09753131      7.63688041     17.78587199 C
  constrain_relaxation .true.
atom       1.47468929      9.60601959      0.23623521 C
  constrain_relaxation .true.
atom       2.67375028     16.92735493      9.33016083 C
  constrain_relaxation .true.
atom      12.89847032      0.31554507      8.69194638 C
  constrain_relaxation .true.
atom      12.89847032      8.30590493     17.81389638 C
  constrain_relaxation .true.
atom       2.67375028      8.93699507      0.20821083 C
  constrain_relaxation .true.
atom       3.43211742     17.02391517      8.16415577 C
  constrain_relaxation .true.
atom      12.14010318      0.21898483      9.85795143 C
  constrain_relaxation .true.
atom      12.14010318      8.40246517      0.73600143 C
  constrain_relaxation .true.
atom       3.43211742      8.84043483     17.28610577 C
  constrain_relaxation .true.
atom       4.70281062      0.51728700      8.11796187 C
  constrain_relaxation .true.
atom      10.86940998     16.72561300      9.90414533 C
  constrain_relaxation .true.
atom      10.86940998      9.13873700      0.78219533 C
  constrain_relaxation .true.
atom       4.70281062      8.10416300     17.23991187 C
  constrain_relaxation .true.
atom       5.50633720      0.68109455      9.25880209 C
  constrain_relaxation .true.
atom      10.06588340     16.56180545      8.76330512 C
  constrain_relaxation .true.
atom      10.06588340      9.30254455     17.88525512 C
  constrain_relaxation .true.
atom       5.50633720      7.94035545      0.13685209 C
  constrain_relaxation .true.
atom       6.70228375      1.35529194      9.19980743 C
  constrain_relaxation .true.
atom       8.86993685     15.88760806      8.82229977 C
  constrain_relaxation .true.
atom       8.86993685      9.97674194     17.94424977 C
  constrain_relaxation .true.
atom       6.70228375      7.26615806      0.07785743 C
  constrain_relaxation .true.
atom       7.13363426      1.87430323      7.99011369 C
  constrain_relaxation .true.
atom       8.43858634     15.36859677     10.03199352 C
  constrain_relaxation .true.
atom       8.43858634     10.49575323      0.91004352 C
  constrain_relaxation .true.
atom       7.13363426      6.74714677     17.11206369 C
  constrain_relaxation .true.
atom       6.36748100      1.72946287      6.86388361 C
  constrain_relaxation .true.
atom       9.20473960     15.51343713     11.15822360 C
  constrain_relaxation .true.
atom       9.20473960     10.35091287      2.03627360 C
  constrain_relaxation .true.
atom       6.36748100      6.89198713     15.98583361 C
  constrain_relaxation .true.
atom       5.13260391      1.04836832      6.89077616 C
  constrain_relaxation .true.
atom      10.43961669     16.19453168     11.13133104 C
  constrain_relaxation .true.
atom      10.43961669      9.66981832      2.00938104 C
  constrain_relaxation .true.
atom       5.13260391      7.57308168     16.01272616 C
  constrain_relaxation .true.
atom       4.37423677      0.71902893      5.67266837 C
  constrain_relaxation .true.
atom      11.19798383     16.52387107     12.34943883 C
  constrain_relaxation .true.
atom      11.19798383      9.34047893      3.22748883 C
  constrain_relaxation .true.
atom       4.37423677      7.90242107     14.79461837 C
  constrain_relaxation .true.
atom       4.36800788      1.43805786      4.48672115 C
  constrain_relaxation .true.
atom      11.20421272     15.80484214     13.53538606 C
  constrain_relaxation .true.
atom      11.20421272     10.05950786      4.41343606 C
  constrain_relaxation .true.
atom       4.36800788      7.18339214     13.60867115 C
  constrain_relaxation .true.
atom       3.92731404      0.76558476      3.27959609 C
  constrain_relaxation .true.
atom      11.64490656     16.47731524     14.74251111 C
  constrain_relaxation .true.
atom      11.64490656      9.38703476      5.62056111 C
  constrain_relaxation .true.
atom       3.92731404      7.85586524     12.40154609 C
  constrain_relaxation .true.
atom       3.53022241      1.42253925      2.08881685 C
  constrain_relaxation .true.
atom      12.04199819     15.82036075     15.93329036 C
  constrain_relaxation .true.
atom      12.04199819     10.04398925      6.81134036 C
  constrain_relaxation .true.
atom       3.53022241      7.19891075     11.21076685 C
  constrain_relaxation .true.
atom       3.52243630      0.68488799      0.87443132 C
  constrain_relaxation .true.
atom      12.04978430     16.55801201     17.14767588 C
  constrain_relaxation .true.
atom      12.04978430      9.30633799      8.02572588 C
  constrain_relaxation .true.
atom       3.52243630      7.93656201      9.99638132 C
  constrain_relaxation .true.
atom       2.86996026      1.05181690     17.87992412 C
  constrain_relaxation .true.
atom      12.70226034     16.19108310      0.14218308 C
  constrain_relaxation .true.
atom      12.70226034      9.67326690      9.26413308 C
  constrain_relaxation .true.
atom       2.86996026      7.56963310      8.75797412 C
  constrain_relaxation .true.
atom       3.19230522      0.36727377     16.71921706 C
  constrain_relaxation .true.
atom      12.37991538     16.87562623      1.30289014 C
  constrain_relaxation .true.
atom      12.37991538      8.98872377     10.42484014 C
  constrain_relaxation .true.
atom       3.19230522      8.25417623      7.59726706 C
  constrain_relaxation .true.
atom       2.34050476      0.31899365     15.50280490 C
  constrain_relaxation .true.
atom      13.23171584     16.92390635      2.51930230 C
  constrain_relaxation .true.
atom      13.23171584      8.94044365     11.64125230 C
  constrain_relaxation .true.
atom       2.34050476      8.30245635      6.38085490 C
  constrain_relaxation .true.
atom       0.94990546      0.42934821     15.54121978 C
  constrain_relaxation .true.
atom      14.62231514     16.81355179      2.48088742 C
  constrain_relaxation .true.
atom      14.62231514      9.05079821     11.60283742 C
  constrain_relaxation .true.
atom       0.94990546      8.19210179      6.41926978 C
  constrain_relaxation .true.
atom       0.17129443      0.21898483     14.42666079 C
  constrain_relaxation .true.
atom      15.40092617     17.02391517      3.59544641 C
  constrain_relaxation .true.
atom      15.40092617      8.84043483     12.71739641 C
  constrain_relaxation .true.
atom       0.17129443      8.40246517      5.30471079 C
  constrain_relaxation .true.
atom       0.75680992     17.12737257     13.22517032 C
  constrain_relaxation .true.
atom      14.81541068      0.11552743      4.79693688 C
  constrain_relaxation .true.
atom      14.81541068      8.50592257     13.91888688 C
  constrain_relaxation .true.
atom       0.75680992      8.73697743      4.10322032 C
  constrain_relaxation .true.
atom       2.12249367     17.01012085     13.14733861 C
  constrain_relaxation .true.
atom      13.44972693      0.23277915      4.87476859 C
  constrain_relaxation .true.
atom      13.44972693      8.38867085     13.99671859 C
  constrain_relaxation .true.
atom       2.12249367      8.85422915      4.02538861 C
  constrain_relaxation .true.
atom       2.94626414     17.21875994     14.27621440 C
  constrain_relaxation .true.
atom      12.62595646      0.02414006      3.74589280 C
  constrain_relaxation .true.
atom      12.62595646      8.59730994     12.86784280 C
  constrain_relaxation .true.
atom       2.94626414      8.64559006      5.15426440 C
  constrain_relaxation .true.
atom       4.39759510     17.05667668     14.21668381 C
  constrain_relaxation .true.
atom      11.17462550      0.18622332      3.80542340 C
  constrain_relaxation .true.
atom      11.17462550      8.43522668     12.92737340 C
  constrain_relaxation .true.
atom       4.39759510      8.80767332      5.09473381 C
  constrain_relaxation .true.
atom       5.08900169     17.19289559     13.01569197 C
  constrain_relaxation .true.
atom      10.48321891      0.05000441      5.00641523 C
  constrain_relaxation .true.
atom      10.48321891      8.57144559     14.12836523 C
  constrain_relaxation .true.
atom       5.08900169      8.67145441      3.89374197 C
  constrain_relaxation .true.
atom       6.44845655     17.04460665     12.94342215 C
  constrain_relaxation .true.
atom       9.12376405      0.19829335      5.07868505 C
  constrain_relaxation .true.
atom       9.12376405      8.42315665     14.20063505 C
  constrain_relaxation .true.
atom       6.44845655      8.81974335      3.82147215 C
  constrain_relaxation .true.
atom       7.16010703     16.75665022     14.08812509 C
  constrain_relaxation .true.
atom       8.41211357      0.48624978      3.93398211 C
  constrain_relaxation .true.
atom       8.41211357      8.13520022     13.05593211 C
  constrain_relaxation .true.
atom       7.16010703      9.10769978      4.96617509 C
  constrain_relaxation .true.
atom       6.50607377     16.62043131     15.30153779 C
  constrain_relaxation .true.
atom       9.06614683      0.62246869      2.72056941 C
  constrain_relaxation .true.
atom       9.06614683      7.99898131     11.84251941 C
  constrain_relaxation .true.
atom       6.50607377      9.24391869      6.17958779 C
  constrain_relaxation .true.
atom       5.12014613     16.76578896     15.39863148 C
  constrain_relaxation .true.
atom      10.45207447      0.47711104      2.62347572 C
  constrain_relaxation .true.
atom      10.45207447      8.14433896     11.74542572 C
  constrain_relaxation .true.
atom       5.12014613      9.09856104      6.27668148 C
  constrain_relaxation .true.
atom       4.40226676     16.80493034     16.69632816 C
  constrain_relaxation .true.
atom      11.16995384      0.43796966      1.32577905 C
  constrain_relaxation .true.
atom      11.16995384      8.18348034     10.44772905 C
  constrain_relaxation .true.
atom       4.40226676      9.05941966      7.57437816 C
  constrain_relaxation .true.
atom       4.82583116     16.24453609     17.88399377 C
  constrain_relaxation .true.
atom      10.74638944      0.99836391      0.13811343 C
  constrain_relaxation .true.
atom      10.74638944      7.62308609      9.26006343 C
  constrain_relaxation .true.
atom       4.82583116      9.61981391      8.76204377 C
  constrain_relaxation .true.
atom       4.19048456     16.65457225      0.87476812 C
  constrain_relaxation .true.
atom      11.38173604      0.58832775     17.14733909 C
  constrain_relaxation .true.
atom      11.38173604      8.03312225      8.02538909 C
  constrain_relaxation .true.
atom       4.19048456      9.20977775      9.99671812 C
  constrain_relaxation .true.
atom       4.22474345     15.90726497      2.07673562 C
  constrain_relaxation .true.
atom      11.34747715      1.33563503     15.94537158 C
  constrain_relaxation .true.
atom      11.34747715      7.28581497      6.82342158 C
  constrain_relaxation .true.
atom       4.22474345      9.95708503     11.19868562 C
  constrain_relaxation .true.
atom       3.93977181     16.56008116      3.29620305 C
  constrain_relaxation .true.
atom      11.63244879      0.68281884     14.72590416 C
  constrain_relaxation .true.
atom      11.63244879      7.93863116      5.60395416 C
  constrain_relaxation .true.
atom       3.93977181      9.30426884     12.41815305 C
  constrain_relaxation .true.
atom       3.60029740     15.93071531      4.55931991 C
  constrain_relaxation .true.
atom      11.97192320      1.31218469     13.46278729 C
  constrain_relaxation .true.
atom      11.97192320      7.30926531      4.34083729 C
  constrain_relaxation .true.
atom       3.60029740      9.93363469     13.68126991 C
  constrain_relaxation .true.
atom       3.65635740     16.70147294      5.70642765 C
  constrain_relaxation .true.
atom      11.91586320      0.54142706     12.31567956 C
  constrain_relaxation .true.
atom      11.91586320      8.08002294      3.19372956 C
  constrain_relaxation .true.
atom       3.65635740      9.16287706     14.82837765 C
  constrain_relaxation .true.
atom       2.95249303     16.42386225      6.98093739 C
  constrain_relaxation .true.
atom      12.61972757      0.81903775     11.04116981 C
  constrain_relaxation .true.
atom      12.61972757      7.80241225      1.91921981 C
  constrain_relaxation .true.
atom       2.95249303      9.44048775     16.10288739 C
  constrain_relaxation .true.
atom       4.93327949      2.82266273      4.46371007 C
  constrain_relaxation .true.
atom      10.63894111     14.42023727     13.55839713 C
  constrain_relaxation .true.
atom      10.63894111     11.44411273      4.43644713 C
  constrain_relaxation .true.
atom       4.93327949      5.79878727     13.58566007 C
  constrain_relaxation .true.
atom       4.48635675      3.76757365      5.39102760 C
  constrain_relaxation .true.
atom      11.08586384     13.47532635     12.63107961 C
  constrain_relaxation .true.
atom      11.08586384     12.38902365      3.50912961 C
  constrain_relaxation .true.
atom       4.48635675      4.85387635     14.51297760 C
  constrain_relaxation .true.
atom       5.10768836      5.00388958      5.49711463 C
  constrain_relaxation .true.
atom      10.46453224     12.23901042     12.52499257 C
  constrain_relaxation .true.
atom      10.46453224     13.62533958      3.40304257 C
  constrain_relaxation .true.
atom       5.10768836      3.61756042     14.61906463 C
  constrain_relaxation .true.
atom       6.18995769      5.29701888      4.70633428 C
  constrain_relaxation .true.
atom       9.38226291     11.94588112     13.31577292 C
  constrain_relaxation .true.
atom       9.38226291     13.91846888      4.19382292 C
  constrain_relaxation .true.
atom       6.18995769      3.32443112     13.82828428 C
  constrain_relaxation .true.
atom       6.62442264      4.38831805      3.77153175 C
  constrain_relaxation .true.
atom       8.94779796     12.85458195     14.25057545 C
  constrain_relaxation .true.
atom       8.94779796     13.00976805      5.12862545 C
  constrain_relaxation .true.
atom       6.62442264      4.23313195     12.89348175 C
  constrain_relaxation .true.
atom       5.99219049      3.16234786      3.63640973 C
  constrain_relaxation .true.
atom       9.58003011     14.08055214     14.38569747 C
  constrain_relaxation .true.
atom       9.58003011     11.78379786      5.26374747 C
  constrain_relaxation .true.
atom       5.99219049      5.45910214     12.75835973 C
  constrain_relaxation .true.
atom       3.13935967      2.85783825      2.14656140 C
  constrain_relaxation .true.
atom      12.43286093     14.38506175     15.87554580 C
  constrain_relaxation .true.
atom      12.43286093     11.47928825      6.75359580 C
  constrain_relaxation .true.
atom       3.13935967      5.76361175     11.26851140 C
  constrain_relaxation .true.
atom       2.17076755      3.29166961      3.04682801 C
  constrain_relaxation .true.
atom      13.40145305     13.95123039     14.97527919 C
  constrain_relaxation .true.
atom      13.40145305     11.91311961      5.85332919 C
  constrain_relaxation .true.
atom       2.17076755      5.32978039     12.16877801 C
  constrain_relaxation .true.
atom       1.82194981      4.62627007      3.13389372 C
  constrain_relaxation .true.
atom      13.75027079     12.61662993     14.88821348 C
  constrain_relaxation .true.
atom      13.75027079     13.24772007      5.76626348 C
  constrain_relaxation .true.
atom       1.82194981      3.99517993     12.25584372 C
  constrain_relaxation .true.
atom       2.42303753      5.53841948      2.32260092 C
  constrain_relaxation .true.
atom      13.14918307     11.70448052     15.69950628 C
  constrain_relaxation .true.
atom      13.14918307     14.15986948      6.57755628 C
  constrain_relaxation .true.
atom       2.42303753      3.08303052     11.44455092 C
  constrain_relaxation .true.
atom       3.37917187      5.14010849      1.40590979 C
  constrain_relaxation .true.
atom      12.19304873     12.10279151     16.61619741 C
  constrain_relaxation .true.
atom      12.19304873     13.76155849      7.49424741 C
  constrain_relaxation .true.
atom       3.37917187      3.48134151     10.52785979 C
  constrain_relaxation .true.
atom       3.74044739      3.79688658      1.31866665 C
  constrain_relaxation .true.
atom      11.83177321     13.44601342     16.70344055 C
  constrain_relaxation .true.
atom      11.83177321     12.41833658      7.58149055 C
  constrain_relaxation .true.
atom       3.74044739      4.82456342     10.44061665 C
  constrain_relaxation .true.
atom       1.81104926      2.09328806     17.85468701 C
  constrain_relaxation .true.
atom      13.76117134     15.14961194      0.16742019 C
  constrain_relaxation .true.
atom      13.76117134     10.71473806      9.28937019 C
  constrain_relaxation .true.
atom       1.81104926      6.52816194      8.73273701 C
  constrain_relaxation .true.
atom       0.70386437      2.03983507      0.42053101 C
  constrain_relaxation .true.
atom      14.86835623     15.20306493     17.60157620 C
  constrain_relaxation .true.
atom      14.86835623     10.66128507      8.47962620 C
  constrain_relaxation .true.
atom       0.70386437      6.58161493      9.54248101 C
  constrain_relaxation .true.
atom      15.27634841      2.99854031      0.09804074 C
  constrain_relaxation .true.
atom       0.29587219     14.24435969     17.92406647 C
  constrain_relaxation .true.
atom       0.29587219     11.61999031      8.80211647 C
  constrain_relaxation .true.
atom      15.27634841      5.62290969      9.21999074 C
  constrain_relaxation .true.
atom      15.40248339      4.01069854     17.39511019 C
  constrain_relaxation .true.
atom       0.16973720     13.23220146      0.62699701 C
  constrain_relaxation .true.
atom       0.16973720     12.63214854      9.74894701 C
  constrain_relaxation .true.
atom      15.40248339      4.61075146      8.27316019 C
  constrain_relaxation .true.
atom       0.94990546      4.11070736     16.81646839 C
  constrain_relaxation .true.
atom      14.62231514     13.13219264      1.20563881 C
  constrain_relaxation .true.
atom      14.62231514     12.73215736     10.32758881 C
  constrain_relaxation .true.
atom       0.94990546      4.51074264      7.69451839 C
  constrain_relaxation .true.
atom       1.90292536      3.15027783     16.94884587 C
  constrain_relaxation .true.
atom      13.66929524     14.09262217      1.07326133 C
  constrain_relaxation .true.
atom      13.66929524     11.77172783     10.19521133 C
  constrain_relaxation .true.
atom       1.90292536      5.47117217      7.82689587 C