#=======================================================
# FHI-aims file: pahs_geometry_fix/KAFVUI.in
# Created using the Atomic Simulation Environment (ASE)
# Tue May 25 14:20:52 2021
#=======================================================
lattice_vector 4.6669999999999998 0.0000000000000000 0.0000000000000003 
lattice_vector 0.0000000000000027 16.6630000000000003 0.0000000000000010 
lattice_vector 0.0000000000000000 0.0000000000000000 18.4980000000000011 
atom 4.5736600000000003 3.5825450000000001 10.7288399999999999 H
atom 2.4268400000000021 13.0804550000000006 1.4798400000000012 H
atom 0.0933400000000019 11.9140449999999998 17.0181600000000017 H
atom 2.2401600000000008 4.7489549999999996 7.7691600000000003 H
atom 0.6253780000000009 5.4821270000000002 9.6004620000000020 H
atom 1.7081220000000017 11.1808730000000001 0.3514620000000008 H
atom 4.0416220000000020 13.8136270000000003 18.1465380000000032 H
atom 2.9588780000000003 2.8493730000000004 8.8975380000000008 H
atom 2.5388480000000011 6.7318520000000008 10.4698680000000000 H
atom 4.4616520000000017 9.9311480000000003 1.2208680000000010 H
atom 2.1281520000000023 15.0633520000000001 17.2771320000000017 H
atom 0.2053480000000002 1.5996480000000000 8.0281320000000012 H
atom 3.4302450000000007 6.1153209999999998 12.5971380000000028 H
atom 3.5702550000000017 10.5476790000000005 3.3481380000000009 H
atom 1.2367550000000023 14.4468209999999999 15.1498620000000006 H
atom 1.0967450000000003 2.2161790000000003 5.9008620000000009 H
atom 4.3029740000000007 5.7653979999999994 14.3359500000000022 H
atom 2.6975260000000016 10.8976020000000009 5.0869500000000016 H
atom 0.3640260000000022 14.0968979999999995 13.4110500000000012 H
atom 1.9694740000000004 2.5661019999999999 4.1620500000000007 H
atom 0.2053480000000008 5.3654860000000006 16.6851960000000012 H
atom 2.1281520000000018 11.2975140000000014 7.4361960000000016 H
atom 4.4616520000000017 13.6969859999999990 11.0618040000000022 H
atom 2.5388480000000007 2.9660139999999999 1.8128040000000005 H
atom 3.7616020000000003 3.6491970000000000 17.9800560000000011 H
atom 3.2388980000000021 13.0138030000000011 8.7310560000000006 H
atom 0.9053980000000019 11.9806969999999993 9.7669440000000023 H
atom 1.4281020000000006 4.6823030000000001 0.5179440000000004 H
atom 2.0301450000000005 1.8495930000000000 18.1650360000000006 H
atom 0.3033550000000024 14.8134069999999998 8.9160360000000018 H
atom 2.6368550000000015 10.1810930000000006 9.5819640000000010 H
atom 4.3636450000000009 6.4819070000000005 0.3329640000000006 H
atom 0.4340310000000001 0.4499010000000000 17.1846420000000002 H
atom 1.8994690000000025 16.2130989999999997 7.9356420000000014 H
atom 4.2329690000000015 8.7814010000000007 10.5623579999999997 H
atom 2.7675310000000013 7.8815989999999996 1.3133580000000007 H
atom 3.9016120000000023 16.3130769999999998 15.3533400000000011 H
atom 3.0988880000000001 0.3499230000000000 6.1043400000000005 H
atom 0.7653880000000013 7.9815769999999997 12.3936600000000023 H
atom 1.5681120000000013 8.6814230000000006 3.1446600000000009 H
atom 2.5855180000000026 15.5132530000000006 13.3185600000000015 H
atom 4.4149819999999993 1.1497470000000001 4.0695600000000010 H
atom 2.0814820000000012 7.1817529999999996 14.4284400000000019 H
atom 0.2520180000000015 9.4812469999999998 5.1794400000000014 H
atom 2.2961640000000028 15.2966340000000010 10.8953220000000019 H
atom 0.0373360000000002 1.3663660000000000 1.6463220000000001 H
atom 2.3708360000000011 6.9651339999999999 16.8516780000000033 H
atom 4.6296640000000018 9.6978659999999994 7.6026780000000009 H
atom 3.8036049999999997 0.0999780000000000 9.4339800000000018 H
atom 3.1968950000000027 16.5630220000000001 0.1849800000000012 H
atom 0.8633950000000012 8.4314780000000003 18.3130200000000016 H
atom 1.4701050000000013 8.2315220000000000 9.0640200000000011 H
atom 0.5227040000000002 1.6829630000000002 10.4328719999999997 H
atom 1.8107960000000025 14.9800370000000012 1.1838720000000011 H
atom 4.1442960000000015 10.0144629999999992 17.3141280000000037 H
atom 2.8562040000000009 6.6485370000000001 8.0651280000000014 H
atom 0.6972498000000007 4.0674383000000001 11.1487446000000006 C
atom 1.6362502000000021 12.5955617000000011 1.8997446000000009 C
atom 3.9697502000000018 12.3989382999999993 16.5982554000000029 C
atom 3.0307498000000006 4.2640617000000001 7.3492554000000005 C
atom 1.1256804000000009 5.1805267000000006 10.4754174000000013 C
atom 1.2078196000000017 11.4824733000000005 1.2264174000000008 C
atom 3.5413196000000022 13.5120266999999998 17.2715826000000021 C
atom 3.4591804000000002 3.1509733000000000 8.0225825999999998 C
atom 2.1776222000000010 5.9286954000000005 10.9952112000000017 C
atom 0.1558778000000017 10.7343045999999998 1.7462112000000007 C
atom 2.4893778000000020 14.2601954000000006 16.7517887999999999 C
atom 4.5111222000000000 2.4028046000000001 7.5027888000000011 C
atom 2.7152606000000006 5.5821050000000003 12.2086800000000011 C
atom 4.2852394000000018 11.0808949999999999 2.9596800000000010 C
atom 1.9517394000000021 13.9136050000000004 15.5383200000000006 C
atom 0.3817606000000004 2.7493950000000003 6.2893200000000009 C
atom 3.7597352000000006 4.9639077000000000 14.8723920000000032 C
atom 3.2407648000000018 11.6990922999999984 5.6233920000000008 C
atom 0.9072648000000020 13.2954077000000019 12.8746080000000003 C
atom 1.4262352000000003 3.3675923000000001 3.6256080000000006 C
atom 4.1148939000000011 4.7756158000000006 16.2097973999999994 C
atom 2.8856061000000013 11.8873842000000014 6.9607974000000015 C
atom 0.5521061000000022 13.1071157999999990 11.5372026000000023 C
atom 1.7813939000000005 3.5558841999999999 2.2882026000000004 C
atom 3.4601138000000002 3.8091618000000000 16.9756146000000001 C
atom 3.5403862000000021 12.8538382000000002 7.7266146000000013 C
atom 1.2068862000000020 12.1406618000000002 10.7713854000000016 C
atom 1.1266138000000006 4.5223382000000001 1.5223854000000003 C
atom 1.8448651000000000 1.9745655000000000 17.1642942000000005 C
atom 0.4886349000000024 14.6884344999999996 7.9152942000000017 C
atom 2.8221349000000018 10.3060655000000008 10.5827058000000029 C
atom 4.1783651000000006 6.3569345000000004 1.3337058000000006 C
atom 0.9460009000000001 1.1480807000000002 16.6204530000000013 C
atom 1.3874991000000025 15.5149193000000007 7.3714530000000016 C
atom 3.7209991000000011 9.4795806999999996 11.1265470000000022 C
atom 3.2795009000000013 7.1834192999999997 1.8775470000000010 C
atom 4.3179084000000003 0.4049109000000000 14.6522658000000021 C
atom 2.6825916000000025 16.2580890999999994 5.4032658000000016 C
atom 0.3490916000000014 8.7364108999999992 13.0947342000000013 C
atom 1.9844084000000013 7.9265891000000002 3.8457342000000008 C
atom 3.1618925000000027 16.1547784999999990 12.6970272000000026 C
atom 3.8386074999999997 0.5082215000000000 3.4480272000000007 C
atom 1.5051075000000014 7.8232784999999998 15.0499728000000008 C
atom 0.8283925000000014 8.8397214999999996 5.8009728000000012 C
atom 2.9696121000000026 16.0781287000000006 11.3503728000000024 C
atom 4.0308878999999997 0.5848713000000000 2.1013728000000005 C
atom 1.6973879000000014 7.7466286999999996 16.3966272000000011 C
atom 0.6361121000000014 8.9163712999999998 7.1476272000000014 C
atom 3.7420005999999995 0.2482787000000000 10.5235122000000008 C
atom 3.2584994000000029 16.4147213000000001 1.2745122000000013 C
atom 0.9249994000000012 8.5797787000000003 17.2234878000000009 C
atom 1.4085006000000013 8.0832212999999999 7.9744878000000003 C
atom 4.5853275000000000 1.1997359999999999 11.0507052000000012 C
atom 2.4151725000000024 15.4632640000000006 1.8017052000000011 C
atom 0.0816725000000015 9.5312359999999998 16.6962948000000004 C
atom 2.2518275000000010 7.1317639999999995 7.4472948000000017 C
atom 1.3006929000000007 3.6175373000000000 12.3529643999999994 C
atom 1.0328071000000019 13.0454627000000016 3.1039644000000011 C
atom 3.3663071000000020 11.9490372999999988 15.3940356000000023 C
atom 3.6341929000000004 4.7139626999999997 6.1450356000000008 C
atom 2.2942972000000008 4.4473547000000009 12.9264024000000006 C
atom 0.0392028000000020 12.2156453000000003 3.6774024000000010 C
atom 2.3727028000000021 12.7788547000000001 14.8205976000000028 C
atom 4.6277972000000007 3.8841453000000001 5.5715976000000014 C
atom 2.7717313000000008 4.1807467000000003 14.2823058000000014 C
atom 4.2287687000000016 12.4822533000000000 5.0333058000000017 C
atom 1.8952687000000019 12.5122467000000004 13.4646942000000021 C
atom 0.4382313000000007 4.1507532999999999 4.2156942000000006 C
atom 2.1496202000000002 3.1659700000000002 15.0185262000000002 C
atom 0.1838798000000021 13.4970300000000005 5.7695262000000014 C
atom 2.5173798000000018 11.4974699999999999 12.7284738000000033 C
atom 4.4831202000000010 5.1655300000000004 3.4794738000000005 C
atom 2.4949782000000003 2.9860096000000000 16.4077260000000003 C
atom 4.5055218000000021 13.6769903999999993 7.1587260000000015 C
atom 2.1720218000000018 11.3175096000000011 11.3392740000000014 C
atom 0.1614782000000008 5.3454904000000001 2.0902740000000004 C
atom 1.1919518000000004 2.2744995000000001 14.4191909999999996 C
atom 1.1415482000000021 14.3885005000000010 5.1701910000000018 C
atom 3.4750482000000020 10.6059994999999994 13.3278090000000020 C
atom 3.5254518000000004 6.0570005000000000 4.0788090000000006 C
atom 0.5913089000000002 1.2563902000000000 15.2257038000000016 C
atom 1.7421911000000025 15.4066098000000000 5.9767038000000010 C
atom 4.0756911000000011 9.5878902000000004 12.5212962000000001 C
atom 2.9248089000000013 7.0751097999999999 3.2722962000000009 C
atom 4.0476890999999995 0.4299054000000000 13.2797142000000008 C
atom 2.9528109000000029 16.2330946000000012 4.0307142000000020 C
atom 0.6193109000000014 8.7614054000000010 14.4672858000000026 C
atom 1.7141891000000014 7.9015946000000001 5.2182858000000012 C
atom 0.0527371000000002 1.3880279000000000 12.4510038000000023 C
atom 2.2807629000000027 15.2749720999999994 3.2020038000000013 C
atom 4.6142629000000017 9.7195279000000010 15.2959962000000012 C
atom 2.3862371000000011 6.9434721000000001 6.0469962000000015 C
atom 0.8442603000000003 2.4094698000000001 13.0484892000000023 C
atom 1.4892397000000022 14.2535302000000019 3.7994892000000013 C
atom 3.8227397000000019 10.7409697999999985 14.6985108000000011 C
atom 3.1777603000000005 5.9220302000000000 5.4495108000000005 C
