#=======================================================
# FHI-aims file: pahs_geometry_fix/SETTES.in
# Created using the Atomic Simulation Environment (ASE)
# Tue May 25 14:20:53 2021
#=======================================================
lattice_vector -0.0000000000000006 -3.7650999999999999 -0.0000000000000002 
lattice_vector -15.5738963936145911 0.0000000000000000 4.6276895672633884 
lattice_vector 0.0000000000000000 0.0000000000000000 -18.7149999999999999 
atom -11.8937846758034649 -1.9126707999999999 -2.4808344774809505 H
atom -3.6801117178111276 -1.8524292000000000 -11.6064759552556627 H
atom -11.4670599146184227 -0.0301208000000004 0.0648688283760308 H
atom -4.1068364789961693 -3.7349791999999997 -14.1521792611126447 H
atom -13.5897819930680939 -1.9390265000000000 -0.8876660836059689 H
atom -1.9841144005464986 -1.8260734999999999 -13.1996443491306472 H
atom -9.7710625973537937 -0.0564765000000000 -1.5282995654989504 H
atom -5.8028337962607983 -3.7086234999999999 -12.5590108672376619 H
atom -14.8606119387870432 -2.5037915000000002 0.5698088850827251 H
atom -0.7132844548275478 -1.2613084999999997 -14.6571193178193386 H
atom -8.5002326516348443 -0.6212415000000001 -2.9857745341876440 H
atom -7.0736637419797486 -3.1438584999999999 -11.1015358985489687 H
atom -0.8285312881402971 -3.0610262999999995 -2.3664209150215889 H
atom -14.7453651054742938 -0.7040737000000006 -11.7208895177150243 H
atom -6.9584169086669991 -1.1784762999999998 -4.6772343013467195 H
atom -8.6154794849475920 -2.5866237000000001 -9.4100761313898946 H
atom -2.8796134431793372 -0.4179261000000000 -2.9434851990130011 H
atom -12.6942829504352535 -3.3471739000000000 -11.1438252337236108 H
atom -4.9073347536279588 -2.3004761000000000 -4.1001700173553068 H
atom -10.6665616399866341 -1.4646239000000001 -9.9871404153813064 H
atom -3.4402737133494630 -0.7831408000000003 -5.2117098745915191 H
atom -12.1336226802651286 -2.9819591999999999 -8.8756005581450950 H
atom -4.3466744834578330 -2.6656907999999997 -1.8319453417767912 H
atom -11.2272219101567590 -1.0994092000000004 -12.2553650909598240 H
atom -11.1618115453035784 -0.7567850999999998 -7.8337318871423296 H
atom -4.4120848483110144 -3.0083149000000002 -6.2535785455942827 H
atom -12.1990330451183091 -2.6393351000000003 -13.2972337619625876 H
atom -3.3748633484962820 -1.1257649000000001 -0.7900766707740257 H
atom -8.9487608677709449 -0.3991006000000004 -7.1438465746504578 H
atom -6.6251355258436462 -3.3659993999999998 -6.9434638580861545 H
atom -14.4120837226509426 -2.2816505999999999 -13.9871190744544602 H
atom -1.1618126709636487 -1.4834494000000000 -0.1001913582821521 H
atom -8.5485117304550489 -3.0007846999999996 -5.0918381965291273 H
atom -7.0253846631595414 -0.7643152999999998 -8.9954722362074868 H
atom -14.8123328599668369 -1.1182347000000001 2.6758725474242069 H
atom -0.7615635336477548 -2.6468653000000000 -16.7631829801608205 H
atom -10.3395098157207261 -2.4209592999999998 -3.6688198962938383 H
atom -5.2343865778938632 -1.3441407000000003 -10.4184905364427767 H
atom -13.0213347747011614 -0.5384093000000001 1.2528542471889188 H
atom -2.5525616189134328 -3.2266906999999998 -15.3401646799255325 H
atom -12.9657359645759556 -2.8723947900000000 -4.0102297045662105 C
atom -2.6081604290386360 -0.8927052099999999 -10.0770807281704009 C
atom -10.3951086258459320 -0.9898447900000005 1.5942640554612930 C
atom -5.1787877677686600 -2.7752552099999996 -15.6815744881979047 C
atom -12.7755786896099206 -2.3162895199999998 -2.7226224941824988 C
atom -2.7983177040046692 -1.4488104800000001 -11.3646879385541162 C
atom -10.5852659008119669 -0.4337395200000003 0.3066568450775795 C
atom -4.9886304928026268 -3.3313604799999998 -14.3939672778141912 C
atom -13.7681031067749799 -2.3275848200000002 -1.7921384380608028 C
atom -1.8057932868396120 -1.4375151800000001 -12.2951719946758100 C
atom -9.5927414836469076 -0.4450348200000003 -0.6238272110441165 C
atom -5.9811549099676844 -3.3200651799999998 -13.4634832216924956 C
atom -0.1657062576280594 -2.8859491499999996 -4.2995659330043194 C
atom -15.4081901359865316 -0.8791508500000006 -9.7877444997322947 C
atom -7.6212419391792370 -1.0033991500000001 -2.7440892833639907 C
atom -7.9526544544353550 -2.7617008500000000 -11.3432211493726225 C
atom -1.0552872196313259 -3.2300792899999999 -3.3165763049222345 C
atom -14.5186091739832666 -0.5350207100000000 -10.7707341278143787 C
atom -6.7316609771759701 -1.3475292900000000 -3.7270789114460738 C
atom -8.8422354164386210 -2.4175707100000001 -10.3602315212905385 C
atom -2.2558788926150739 -0.0945040100000005 -3.6556514161818994 C
atom -13.3180175009995168 -3.6705959899999998 -10.4316590165547147 C
atom -5.5310693041922221 -1.9770540100000005 -3.3880038001864108 C
atom -10.0428270894223690 -1.7880459899999999 -10.6993066325502060 C
atom -2.5826192389531082 -0.2774878700000000 -4.9747265390607120 C
atom -12.9912771546614838 -3.4876121300000000 -9.1125838936759003 C
atom -5.2043289578541874 -2.1600378700000000 -2.0689286773075963 C
atom -10.3695674357604020 -1.6050621300000001 -12.0183817554290204 C
atom -2.0745987385934006 -0.0045181199999999 -7.4229480227448459 C
atom -13.4992976550211914 -3.7605818800000002 -6.6643624099917673 C
atom -5.7123494582138949 -1.8870681200000003 0.3792928063765381 C
atom -9.8615469354006962 -1.8780318800000000 -14.4666032391131498 C
atom -1.0543527858477093 -0.0048946299999999 -8.3725240662962701 C
atom -14.5195436077668845 -3.7602053700000000 -5.7147863664403422 C
atom -6.7325954109595880 -1.8874446300000003 1.3288688499279611 C
atom -8.8413009826550031 -1.8776553700000000 -15.4161792826645758 C
atom -14.2543201521836274 -3.3283483999999999 -4.3620855697708389 C
atom -1.3195762414309640 -0.4367516000000004 -9.7252248629657760 C
atom -9.1065244382382602 -1.4457984000000004 1.9461199206659197 C
atom -6.4673719553763318 -2.3193016000000002 -16.0334303534025331 C
atom -15.0387773135299945 -2.8882082099999997 -2.0742689962677812 C
atom -0.5351190800845966 -0.8768917900000004 -12.0130414364688303 C
atom -8.3220672768918931 -1.0056582100000000 -0.3416966528371382 C
atom -7.2518291167226998 -2.7594417899999999 -13.7456137798994753 C
atom -0.4575610760443966 -3.0926531399999999 -5.6688700305138031 C
atom -15.1163353175701953 -0.6724468600000003 -8.4184404022228083 C
atom -7.3293871207628998 -1.2101031400000004 -1.3747851858545048 C
atom -8.2445092728516922 -2.5549968600000001 -12.7125252468821088 C
atom -1.7329074517174958 -3.6065892899999996 -6.0188577818506026 C
atom -13.8409889418970966 -0.1585107100000005 -8.0684526508860088 C
atom -6.0540407450898002 -1.7240392899999999 -1.0247974345177033 C
atom -9.5198556485247909 -2.0410607100000000 -13.0625129982189101 C
atom -15.2982384274476129 -3.3351255800000001 -3.3876961880771743 C
atom -0.2756579661669791 -0.4299744199999999 -10.6996142446594380 C
atom -8.0626061629742747 -1.4525755800000000 0.9717305389722545 C
atom -7.5112902306403173 -2.3125244200000004 -15.0590409717088676 C
atom -11.8632598388719792 -3.0610262999999995 -4.9361423990327893 C
atom -3.7106365547426132 -0.7040737000000006 -9.1511680337038275 C
atom -11.4975847515499083 -1.1784762999999998 2.5201767499278698 C
atom -4.0763116420646828 -2.5866237000000001 -16.6074871826644817 C
atom -12.1250570372486397 -3.5847517099999995 -6.2271660374070894 C
atom -3.4488393563659518 -0.1803482900000006 -7.8601443953295220 C
atom -11.2357875531732461 -1.7022017099999998 -14.9037996116978277 C
atom -4.3381088404413441 -2.0628982900000001 0.8164891789612146 C
atom -11.0230481284364696 -0.2571563300000001 -6.9981668511866477 C
atom -4.5508482651781197 -3.5079436700000000 -7.0891435815499664 C
atom -12.3377964619854144 -2.1397063300000001 -14.1327987979182694 C
atom -3.2360999316291768 -1.6253936699999998 0.0454883651816565 C
atom -9.7258982978123125 -0.0576060300000003 -6.5878453152440146 C
atom -5.8479980958022786 -3.7074939699999998 -7.4994651174925968 C
atom -13.6349462926095732 -1.9401560299999998 -14.5431203338609034 C
atom -1.9389501010050176 -1.8249439700000001 0.4558099011242912 C
atom -9.4760929996587340 -3.1762383600000001 -5.3742943059029189 C
atom -6.0978033939558571 -0.5888616400000000 -8.7130161268336952 C
atom -13.8847515907631536 -1.2936883600000000 2.9583286567980012 C
atom -1.6891448028514389 -2.4714116400000004 -17.0456390895346139 C
atom -10.5211014476702722 -2.8324847300000000 -4.5579098859395479 C
atom -5.0527949459443171 -0.9326152700000001 -9.5294005467970671 C
atom -12.8397431427516153 -0.9499347299999998 2.1419442368346280 C
atom -2.7341532508629789 -2.8151652700000001 -16.2292546695712403 C
