#=======================================================
# FHI-aims file: pahs_geometry_fix/CORONE01.in
# Created using the Atomic Simulation Environment (ASE)
# Tue May 25 14:20:52 2021
#=======================================================
lattice_vector -0.0000000000000008 -4.6950000000000003 -0.0000000000000003 
lattice_vector 0.0000000000000000 0.0000000000000000 -10.1500000000000004 
lattice_vector 15.0506933899758337 0.0000000000000000 4.4327779052289937 
atom 13.2536405992127175 -1.9672050000000003 -4.6691857766553495 C
atom 1.7970527907631140 -2.7277950000000000 -1.0480363181156593 C
atom 9.3223994857510295 -4.3147050000000000 -3.9066473655011613 C
atom 5.7282939042248024 -0.3802950000000004 -1.8105747292698451 C
atom 13.3665207996375379 -2.3381100000000008 -3.3113649423661311 C
atom 1.6841725903382954 -2.3568899999999999 -2.4058571524048773 C
atom 9.2095192853262127 -4.6856100000000005 -5.2644681997903797 C
atom 5.8411741046496211 -0.0093900000000000 -0.4527538949806277 C
atom 14.3312702459349897 -1.7700150000000001 -2.4902888786409525 C
atom 0.7194231440408444 -2.9249850000000004 -3.2269332161300541 C
atom 8.2447698390287609 -4.1175150000000000 -6.0855442635155583 C
atom 6.8059235509470719 -0.5774850000000006 0.3683221687445508 C
atom 0.1836184593577050 -0.7934550000000002 -7.4082001095562067 C
atom 14.8670749306181289 -3.9015450000000000 1.6909780147851987 C
atom 7.3417282356302112 -3.1409550000000004 -5.6004109378292979 C
atom 7.7089651543456217 -1.5540449999999999 -0.1168111569417091 C
atom 1.1784692924351077 -0.1924950000000002 -6.5985584900205705 C
atom 13.8722240975407249 -4.5025050000000002 0.8813363952495638 C
atom 6.3468774025528081 -2.5399950000000002 -6.4100525573649341 C
atom 8.7038159874230256 -2.1550050000000001 0.6928304625939269 C
atom 2.0468943010367124 -3.9391050000000001 -7.1009922048888576 C
atom 13.0037990889391200 -0.7558950000000002 1.3837701101178508 C
atom 5.4784523939512031 -1.5916049999999999 -5.9076188424966478 C
atom 9.5722409960246306 -3.1033950000000003 0.1903967477256392 C
atom 1.9821763194598170 -3.5212500000000002 -8.4568081498813434 C
atom 13.0685170705160161 -1.1737500000000001 2.7395860551103355 C
atom 5.5431703755280992 -1.1737500000000001 -4.5518028975041638 C
atom 9.5075230144477345 -3.5212500000000002 -1.1654191972668451 C
atom 2.8551165360784152 -2.5540800000000004 -9.0015570313780611 C
atom 12.1955768538974159 -2.1409199999999999 3.2843349366070531 C
atom 4.6702301589095017 -0.2065799999999997 -4.0070540160074435 C
atom 10.3804632310663312 -4.4884200000000005 -1.7101680787635640 C
atom 12.2888911529152658 -2.5259100000000001 -5.5410118403805253 C
atom 2.7618022370605653 -2.1690900000000006 -0.1762102543904797 C
atom 10.2871489320484830 -0.1784100000000007 -3.0348213017759824 C
atom 4.7635444579273507 -4.5165899999999999 -2.6824007929950233 C
atom 14.1521669945942765 -0.9812549999999999 -5.1932039357131767 C
atom 0.8985263953815567 -3.7137450000000003 -0.5240181590578304 C
atom 8.4238730903694741 -3.3287550000000006 -3.3826292064433336 C
atom 6.6268202996063597 -1.3662450000000002 -2.3345928883276748 C
atom 0.0918092296788525 -0.3943799999999998 -8.7841750547781032 C
atom 14.9588841602969786 -4.3006200000000003 3.0669529600070966 C
atom 7.4335374653090636 -2.7418800000000005 -4.2244359926074013 C
atom 7.6171559246667693 -1.9531200000000002 -1.4927861021636064 C
atom 0.9903356250604094 -4.1081250000000002 -9.2980432138359319 C
atom 14.0603577649154250 -0.5868750000000000 3.5808211190649257 C
atom 6.5350110699275064 -1.7606250000000001 -3.7105678335495718 C
atom 8.5156823200483238 -2.9343750000000002 -2.0066542612214358 C
atom 11.5826117196489644 -2.5102388865686263 2.7895851976283534 H
atom 12.4117842718191422 -1.0924828373481281 0.8423579897698590 H
atom 1.2591565563709108 -0.4142311541872530 -5.7611681130966375 H
atom 11.7322427412139412 -3.1287159856437374 -5.2517585095051764 H
atom 12.8282130610816001 -2.9314768446807564 -2.9721886368192942 H
atom 14.3704576622500255 -2.0294097098644035 -1.6607837666031093 H
atom 0.6802357277258064 -2.6655902901355981 -4.0564383281678964 H
atom 2.2224803288942239 -1.7635231553192448 -2.7450334579517137 H
atom 3.3184506487618863 -1.5662840143562620 -0.4654635852658160 H
atom 13.7915368336049173 -4.2807688458127435 0.0439460183256354 H
atom 2.6389091181566937 -3.6025171626518726 -6.5595800845408654 H
atom 3.4680816703268613 -2.1847611134313727 -8.5068072923993583 H
atom 9.7478270238821434 -0.5839768446807573 -5.6036445053372201 H
atom 10.8437973437498094 -0.7812159856437382 -3.3240746326513100 H
atom 10.9934283653147773 -0.1627388865686314 -1.2154183397848675 H
atom 8.2055824227137197 -4.3769097098644032 -6.9150493755534006 H
atom 6.2661901386170005 -2.7617311541872560 -7.2474429342888635 H
atom 10.1642558131445995 -3.4399828373481300 0.7318088680736392 H
atom 4.8864375768312263 -1.2550171626518725 -6.4490309628446445 H
atom 6.8451109672621033 -0.3180902901355975 1.1978272807823940 H
atom 8.7845032513588279 -1.9332688458127447 1.5302208395178554 H
atom 4.0572650246610582 -4.5322611134313693 -4.5018037549861445 H
atom 4.2068960462260332 -3.9137840143562608 -2.3931474621196838 H
atom 5.3028663660936930 -4.1110231553192413 -0.1135775894337859 H
