#=======================================================
# FHI-aims file: pahs_geometry_fix/SURTAA.in
# Created using the Atomic Simulation Environment (ASE)
# Tue May 25 14:20:53 2021
#=======================================================
lattice_vector 4.8001316326451384 0.0000000000000000 -0.1103551959788024 
lattice_vector 0.0000000000000022 13.5389999999999997 0.0000000000000008 
lattice_vector 0.0000000000000000 0.0000000000000000 22.0910000000000011 
atom 4.0801118877483686 4.4543309999999998 7.3972561834180190 H
atom 0.7200197448967722 9.0846689999999999 14.5833886206031824 H
atom 0.7200197448967726 11.2238309999999988 3.5378886206031801 H
atom 4.0801118877483677 2.3151690000000000 18.4427561834180196 H
atom 3.0816845081581796 4.9011179999999994 5.1492552641816101 H
atom 1.7184471244869608 8.6378819999999994 16.8313895398395914 H
atom 1.7184471244869612 11.6706179999999993 5.7858895398395891 H
atom 3.0816845081581792 1.8683820000000002 16.1947552641816088 H
atom 3.1296858244846306 4.0346219999999997 2.4464224122218212 H
atom 1.6704458081605096 9.5043779999999991 19.5342223917993785 H
atom 1.6704458081605098 10.8041219999999996 8.4887223917993779 H
atom 3.1296858244846306 2.7348780000000001 13.4919224122218218 H
atom 3.9697088601975299 2.5047150000000000 0.8785311529255306 H
atom 0.8304227724476106 11.0342849999999988 21.1021136510956673 H
atom 0.8304227724476103 9.2742149999999999 10.0566136510956685 H
atom 3.9697088601975303 4.2647849999999998 11.9240311529255330 H
atom 0.9696265897943181 0.5686380000000000 0.4681284504122820 H
atom 3.8305050428508229 12.9703619999999997 21.5125163536089161 H
atom 3.8305050428508221 7.3381380000000007 10.4670163536089174 H
atom 0.9696265897943190 6.2008619999999999 11.5136284504122823 H
atom 2.5296693704039903 12.6454260000000005 1.4550763117191721 H
atom 2.2704622622411503 0.8935740000000000 20.5255684923020283 H
atom 2.2704622622411512 5.8759259999999998 9.4800684923020277 H
atom 2.5296693704039894 7.6630739999999991 12.5005763117191719 H
atom 3.2208883255048901 12.7401989999999987 3.8073403634982244 H
atom 1.5792433071402507 0.7988010000000000 18.1733044405229762 H
atom 1.5792433071402514 5.9706989999999998 7.1278044405229739 H
atom 3.2208883255048892 7.5683010000000008 14.8528403634982240 H
atom 3.9985096499934025 12.7266599999999990 6.6679201217496589 H
atom 0.8016219826517382 0.8123400000000000 15.3127246822715399 H
atom 0.8016219826517391 5.9571600000000000 4.2672246822715403 H
atom 3.9985096499934016 7.5818400000000006 17.7134201217496603 H
atom 4.3441191275438520 13.0245179999999987 9.1120755476391846 H
atom 0.4560125051012882 0.5144820000000000 12.8685692563820133 H
atom 0.4560125051012892 6.2550179999999997 1.8230692563820143 H
atom 4.3441191275438511 7.2839820000000000 20.1575755476391869 H
atom 3.2208883255048879 1.2726660000000001 11.2188708634982248 H
atom 1.5792433071402525 12.2663340000000005 10.7617739405229749 H
atom 1.5792433071402519 8.0421659999999999 21.8072739405229754 H
atom 3.2208883255048888 5.4968340000000007 0.1733708634982239 H
atom 1.6080440969361218 3.0733530000000000 11.3973326093471012 H
atom 3.1920875357090188 10.4656470000000006 10.5833121946740967 H
atom 3.1920875357090188 9.8428529999999999 21.6288121946741008 H
atom 1.6080440969361220 3.6961470000000003 0.3518326093471015 H
atom 0.4224115836727728 3.8450759999999997 9.4938369427538660 H
atom 4.3777200489723684 9.6939239999999991 12.4868078612673337 H
atom 4.3777200489723684 10.6145759999999996 1.4413078612673329 H
atom 0.4224115836727726 2.9244239999999997 20.5393369427538666 H
atom 4.3532393776458775 3.9046475999999997 6.5413571127668249 C
atom 0.4468922549992639 9.6343523999999992 15.4392876912543748 C
atom 0.4468922549992641 10.6741475999999995 4.3937876912543743 C
atom 4.3532393776458775 2.8648524000000002 17.5868571127668254 C
atom 3.7959440950957757 4.1131482000000004 5.3024932910199638 C
atom 1.0041875375493645 9.4258518000000002 16.6781515130012359 C
atom 1.0041875375493647 10.8826481999999984 5.6326515130012362 C
atom 3.7959440950957757 2.6563517999999999 16.3479932910199643 C
atom 4.2063553496869357 3.3603798000000000 4.1555923317637760 C
atom 0.5937762829582053 10.1786201999999992 17.8250524722574220 C
atom 0.5937762829582053 10.1298797999999994 6.7795524722574232 C
atom 4.2063553496869357 3.4091202000000003 15.2010923317637783 C
atom 3.7786636212182536 3.3725649000000000 2.7834120197254868 C
atom 1.0214680114268870 10.1664350999999993 19.1972327842957142 C
atom 1.0214680114268870 10.1420648999999994 8.1517327842957119 C
atom 3.7786636212182536 3.3969350999999999 13.8289120197254878 C
atom 4.3052380613194252 2.5345008000000000 1.8448095147266124 C
atom 0.4948935713257155 11.0044991999999997 20.1358352892945867 C
atom 0.4948935713257153 9.3040008000000007 9.0903352892945861 C
atom 4.3052380613194261 4.2349991999999999 12.8903095147266136 C
atom 0.5328146112236106 1.5664623000000000 2.2763781732463531 C
atom 4.2673170214215297 11.9725377000000002 19.7042666307748462 C
atom 4.2673170214215297 8.3359623000000003 8.6587666307748457 C
atom 0.5328146112236113 5.2030376999999994 13.3218781732463540 C
atom 1.1846724869368201 0.6038394000000000 1.4714177776324315 C
atom 3.6154591457083205 12.9351605999999997 20.5092270263887677 C
atom 3.6154591457083196 7.3733393999999999 9.4637270263887672 C
atom 1.1846724869368210 6.1656605999999998 12.5169177776324325 C
atom 2.1346185370372952 13.3210221000000004 2.0420591043482275 C
atom 2.6655130956078454 0.2179779000000000 19.9385856996729736 C
atom 2.6655130956078463 6.5515220999999997 8.8930856996729712 C
atom 2.1346185370372943 6.9874779000000000 13.0875591043482267 C
atom 2.5248692387713452 13.3629929999999995 3.3952182869151506 C
atom 2.2752623938737955 0.1760070000000000 18.5854265171060469 C
atom 2.2752623938737964 6.5934929999999996 7.5399265171060481 C
atom 2.5248692387713443 6.9455070000000001 14.4407182869151516 C
atom 1.9138124819356168 0.7311059999999999 4.2113907133632518 C
atom 2.8863191507095238 12.8078939999999992 17.7692540906579488 C
atom 2.8863191507095229 7.5006060000000003 6.7237540906579465 C
atom 1.9138124819356175 6.0383940000000003 15.2568907133632514 C
atom 1.9478934165273973 1.1372760000000000 5.6611022514718030 C
atom 2.8522382161177426 12.4017239999999997 16.3195425525493967 C
atom 2.8522382161177422 7.9067759999999989 5.2740425525493961 C
atom 1.9478934165273980 5.6322239999999999 16.7066022514718036 C
atom 2.5810307788732909 0.8069244000000000 6.8244385211221985 C
atom 2.2191008537718497 12.7320755999999999 15.1562062828989994 C
atom 2.2191008537718488 7.5764243999999996 4.1107062828990006 C
atom 2.5810307788732918 5.9625756000000001 17.8699385211222008 C
atom 3.5866583559124496 13.3846553999999998 7.2608119075646398 C
atom 1.2134732767326910 0.1543446000000000 14.7198328964565590 C
atom 1.2134732767326921 6.6151553999999999 3.6743328964565589 C
atom 3.5866583559124487 6.9238445999999998 18.3063119075646412 C
atom 3.7921039897896618 13.5254610000000000 8.5857459951767474 C
atom 1.0080276428554791 0.0135390000000000 13.3948988088444541 C
atom 1.0080276428554802 6.7559610000000001 2.3493988088444517 C
atom 3.7921039897896605 6.7830389999999996 19.6312459951767480 C
atom 2.9343204670359730 1.0546880999999999 9.1086994486981592 C
atom 1.8658111656091672 12.4843118999999998 12.8719453553230423 C
atom 1.8658111656091665 7.8241880999999998 1.8264453553230402 C
atom 2.9343204670359739 5.7148118999999999 20.1541994486981579 C
atom 2.7202345962200001 1.6111409999999999 10.3443109004388134 C
atom 2.0798970364251406 11.9278589999999998 11.6363339035823863 C
atom 2.0798970364251401 8.3806409999999989 0.5908339035823855 C
atom 2.7202345962200005 5.1583589999999999 21.3898109004388139 C
atom 1.7726886119358503 2.6387510999999999 10.4699227161250281 C
atom 3.0274430207092906 10.9002489000000011 11.5107220878961698 C
atom 3.0274430207092902 9.4082510999999993 0.4652220878961699 C
atom 1.7726886119358505 4.1307488999999995 21.5154227161250304 C
atom 1.0569889855084600 3.1058466000000000 9.4072313258454674 C
atom 3.7431426471366809 10.4331533999999984 12.5734134781757323 C
atom 3.7431426471366809 9.8753466000000003 1.5279134781757306 C
atom 1.0569889855084602 3.6636533999999998 20.4527313258454697 C
atom 1.2528343561203816 2.5629326999999997 8.1095216938495334 C
atom 3.5472972765247590 10.9760672999999986 13.8711231101716681 C
atom 3.5472972765247586 9.3324327000000000 2.8256231101716658 C
atom 1.2528343561203819 4.2065672999999997 19.1550216938495339 C
atom 0.5822559670398557 2.9217161999999997 6.8878423147277719 C
atom 4.2178756656052849 10.6172837999999992 15.0928024892934278 C
atom 4.2178756656052849 9.6912161999999995 4.0473024892934273 C
atom 0.5822559670398559 3.8477838000000002 17.9333423147277742 C
atom 0.9739467082636989 2.2000875000000000 5.7738455107359012 C
atom 3.8261849243814416 11.3389124999999993 16.2067992932853002 C
atom 3.8261849243814412 8.9695874999999994 5.1612992932852970 C
atom 0.9739467082636993 4.5694125000000003 16.8193455107359000 C
atom 0.3902507017340501 2.4356661000000002 4.5318331725669241 C
atom 4.4098809309110907 11.1033339000000009 17.4488116314542765 C
atom 4.4098809309110907 9.2051660999999996 6.4033116314542751 C
atom 0.3902507017340505 4.3338339000000001 15.5773331725669255 C
atom 0.9432258658147700 1.5637544999999999 3.5954955439901655 C
atom 3.8569057668303706 11.9752454999999998 18.3851492600310351 C
atom 3.8569057668303701 8.3332545000000007 7.3396492600310337 C
atom 0.9432258658147706 5.2057454999999999 14.6409955439901669 C
atom 2.2013403667310611 1.5475076999999999 8.0108388271241218 C
atom 2.5987912659140795 11.9914923000000009 13.9698059768970779 C
atom 2.5987912659140791 8.3170076999999996 2.9243059768970774 C
atom 2.2013403667310616 5.2219923000000001 19.0563388271241223 C
