#=======================================================
# FHI-aims file: pahs_geometry_fix/OVALEN01.in
# Created using the Atomic Simulation Environment (ASE)
# Tue May 25 14:20:53 2021
#=======================================================
lattice_vector 0.0000000000000008 4.7000000000000002 0.0000000000000003 
lattice_vector -0.0000000000000000 -0.0000000000000000 10.1199999999999992 
lattice_vector 18.8065758378481576 -0.0000000000000000 -5.0392068081460808 
atom 2.2191759488660825 0.3055000000000001 4.7284935966387636 H
atom 16.5873998889820768 4.3945000000000007 0.3522995952151560 H
atom 7.1841119700579972 2.6555000000000000 2.8719029992881970 H
atom 11.6224638677901613 2.0445000000000002 2.2088901925657223 H
atom 3.6296691367046949 1.9458000000000000 3.8243130860278063 H
atom 15.1769067011434640 2.7542000000000000 1.2564801058261128 H
atom 5.7736187822193852 4.2958000000000007 3.7760835098991534 H
atom 13.0329570556287724 0.4042000000000001 1.3047096819547661 H
atom 4.4007387460564704 3.3182000000000000 1.8467056068938170 H
atom 14.4058370917916889 1.3817999999999999 3.2340875849601023 H
atom 5.0025491728676101 0.9681999999999999 5.7536909890331414 H
atom 13.8040266649805474 3.7318000000000002 -0.6728977971792234 H
atom 4.2502861393536850 3.9762000000000000 -0.3596207386410143 H
atom 14.5562896984944743 0.7238000000000000 5.4404139304949330 H
atom 5.1530017795703955 1.6261999999999999 7.9600173345679730 H
atom 13.6535740582777620 3.0738000000000003 -2.8792241427140555 H
atom 3.2347310441098833 3.6989000000000001 7.6036964289988740 H
atom 15.5718447937382738 1.0011000000000001 -2.5229032371449542 H
atom 6.1685568748141959 1.3489000000000000 -0.0032998330719149 H
atom 12.6380189630339625 3.3511000000000006 5.0840930249258331 H
atom 17.0763708607661293 1.9458000000000000 -1.0639597817966413 H
atom 1.7302049770820309 2.7542000000000000 6.1447529736505606 H
atom 11.1334928960061088 4.2958000000000007 3.6251495695775207 H
atom 7.6730829418420479 0.4042000000000001 1.4556436222763991 H
atom 0.2632920617298748 3.4639000000000006 4.3923711046859548 H
atom 18.5432837761182832 1.2361000000000004 0.6884220871679658 H
atom 9.1399958571942044 1.1138999999999999 3.2080254912410053 H
atom 9.6665799806539532 3.5861000000000001 1.8727677006129140 H
atom 1.0945427137627635 4.6896599999999999 2.9016021637658982 C
atom 17.7120331240853943 0.0103400000000000 2.1791910280880211 C
atom 8.3087452051613173 2.3396600000000003 4.6987944321610611 C
atom 10.4978306326868420 2.3603399999999999 0.3819987596928576 C
atom 18.0091770223233958 3.1757900000000006 -2.4584764394806871 C
atom 0.7973988155247621 1.5242099999999998 7.5392696313346068 C
atom 10.2006867344488406 0.8257900000000000 5.0196662272615651 C
atom 8.6058891033993170 3.8742100000000002 0.0611269645923543 C
atom 0.1767818128757733 3.7538900000000006 3.3995034560034267 C
atom 18.6297940249723872 0.9461100000000002 1.6812897358504917 C
atom 9.2265061060483049 1.4038900000000001 4.2008931399235321 C
atom 9.5800697317998509 3.2961100000000001 0.8799000519303861 C
atom 0.0357324940919122 4.5087100000000007 0.6907295070645226 C
atom 18.7708433437562441 0.1912900000000000 4.3900636847893972 C
atom 9.3675554248321671 2.1587100000000001 6.9096670888624354 C
atom 9.4390204130159905 2.5412900000000005 -1.8288738970085181 C
atom 1.0193164104113701 0.3774100000000001 1.5312709909984821 C
atom 17.7872594274367870 4.3225899999999999 3.5495222008554355 C
atom 8.3839715085127082 2.7274100000000003 6.0691256049284759 C
atom 10.4226043293354493 1.9725900000000001 -0.9883324130745582 C
atom 1.9370773112983604 1.3479600000000000 1.0111056987609537 C
atom 16.8694985265497976 3.3520399999999997 4.0696874930929647 C
atom 7.4662106076257198 3.6979600000000010 6.5892908971660065 C
atom 11.3403652302224387 1.0020400000000000 -1.5084977053120865 C
atom 1.7847440470117903 1.7281900000000001 -0.3416007260930630 C
atom 17.0218317908363694 2.9718100000000001 5.4223939179469820 C
atom 7.6185438719122898 4.0781900000000002 7.9419973220200228 C
atom 11.1880319659358687 0.6218100000000000 -2.8612041301661031 C
atom 17.9358313765557860 3.5517900000000009 -3.8272875329289171 C
atom 0.8707444612923700 1.1482100000000000 8.9080807247828364 C
atom 10.2740323802164486 1.2017899999999999 6.3884773207097965 C
atom 8.5325434576317090 3.4982099999999998 -1.3076841288558769 C
atom 2.1213817545092719 0.5804500000000000 3.7173974720411223 C
atom 16.6851940833388852 4.1195500000000003 1.3633957198127971 C
atom 7.2819061644148082 2.9304500000000004 3.8829991238858370 C
atom 11.5246696734333511 1.7695500000000004 1.1977940679680819 C
atom 2.9977681885529970 1.4974200000000000 3.2123664347815151 C
atom 15.8088076492951615 3.2025800000000002 1.8684267570724040 C
atom 6.4055197303710836 3.8474200000000001 4.3880301611454451 C
atom 12.4010561074770749 0.8525800000000000 0.6927630307084749 C
atom 2.9319451731205284 1.9194800000000003 1.8476116586100257 C
atom 15.8746306647276292 2.7805200000000001 3.2331815332438931 C
atom 6.4713427458035522 4.2694799999999997 5.7527849373169335 C
atom 12.3352330920446072 0.4305200000000000 -0.6719917454630148 C
atom 3.8120929223318218 2.8778099999999998 1.2960327799887896 C
atom 14.9944829155163362 1.8221900000000000 3.7847604118651290 C
atom 5.5911949965922574 0.5278100000000000 6.3043638159381699 C
atom 13.2153808412559002 4.1721900000000005 -1.2235706240842503 C
atom 3.7274633310615051 3.2594500000000002 -0.0120707893745529 C
atom 15.0791125067866520 1.4405500000000000 5.0928639812284731 C
atom 5.6758245878625742 0.9094500000000002 7.6124673853015130 C
atom 13.1307512499855843 3.7905500000000001 -2.5316741934475933 C
atom 2.7626859905798948 2.7006200000000007 9.2410965198833388 C
atom 16.0438898472682610 1.9993800000000004 -4.1603033280294213 C
atom 6.6406019283441848 0.3506200000000000 -1.6406999239563811 C
atom 12.1659739095039736 4.3493800000000000 6.7214931158102997 C
atom 2.6686531113906540 3.0498300000000009 7.8596125539240713 C
atom 16.1379227264575036 1.6501700000000001 -2.7788193620701516 C
atom 6.7346348075334248 0.6998300000000001 -0.2592159579971113 C
atom 12.0719410303147328 4.0001699999999998 5.3400091498510323 C
atom 17.0575642849282794 2.2071200000000002 -1.9666845749884958 C
atom 1.7490115529198791 2.4928800000000000 7.0474777668424142 C
atom 11.1522994718439570 4.5571200000000003 4.5278743627693734 C
atom 7.6542763660041997 0.1428800000000000 0.5529188290845454 C
