#=======================================================
# FHI-aims file: ZZZNTQ01.in
# Created using the Atomic Simulation Environment (ASE)
# Tue May 25 15:35:55 2021
#=======================================================
lattice_vector 26.2409999999999997 0.0000000000000000 0.0000000000000000 
lattice_vector 0.0000000000000000 5.5679999999999996 0.0000000000000000 
lattice_vector -1.1498174192809842 0.0000000000000000 8.0088826250806058 
atom 0.6772240675514077 0.0389760000000000 0.3275632993657968 C
atom 24.4139585131676107 5.5290239999999997 7.6813193257148082 C
atom 24.9888672228080999 2.8229759999999997 3.6768780131745062 C
atom 0.1023153579109156 2.7450239999999999 4.3320046119061004 C
atom 1.6193532050327455 4.5991679999999997 0.0528586253255320 C
atom 23.4718293756862693 0.9688319999999999 7.9560239997550735 C
atom 24.0467380853267620 1.8151679999999999 3.9515826872147710 C
atom 1.0444444953922531 3.7528320000000002 4.0572999378658352 C
atom 2.8335002011030443 4.5991679999999997 0.6799541348693434 C
atom 22.2576823796159715 0.9688319999999999 7.3289284902112621 C
atom 22.8325910892564643 1.8151679999999999 3.3244871776709597 C
atom 2.2585914914625524 3.7528320000000002 4.6843954474096465 C
atom 3.2418767580144237 0.0055680000000000 1.5641347766782423 C
atom 21.8493058227045935 5.5624319999999994 6.4447478484023630 C
atom 22.4242145323450828 2.7895679999999996 2.4403065358620606 C
atom 2.6669680483739313 2.7784320000000000 5.5685760892185456 C
atom 2.3222966233711899 0.9966719999999999 1.7731666131928463 C
atom 22.7688859573478268 4.5713279999999994 6.2357160118877593 C
atom 23.3437946669883196 3.7806720000000000 2.2312746993474568 C
atom 1.7473879137306980 1.7873280000000000 5.7776079257331494 C
atom 1.0207825165919375 0.9966719999999999 1.2245581533748247 C
atom 24.0704000641270781 4.5713279999999994 6.7843244717057809 C
atom 24.6453087737675709 3.7806720000000000 2.7798831591654785 C
atom 0.4458738069514454 1.7873280000000000 5.2289994659151278 C
atom 4.6064023262782197 5.5234559999999995 2.1856240683844970 C
atom 20.4847802544407962 0.0445440000000000 5.8232585566961079 C
atom 21.0596889640812890 2.7394559999999997 1.8188172441558055 C
atom 4.0314936166377269 2.8285439999999999 6.1900653809248007 C
atom 5.5496608011144923 4.5601919999999998 1.9213309417568374 C
atom 19.5415217796045226 1.0078079999999998 6.0875516833237686 C
atom 20.1164304892450154 1.7761920000000000 2.0831103707834657 C
atom 4.9747520914739995 3.7918080000000001 5.9257722542971401 C
atom 6.7080118067332224 4.5768959999999996 2.5532317808756968 C
atom 18.3831707739857961 0.9911039999999999 5.4556508442049090 C
atom 18.9580794836262889 1.7928959999999998 1.4512095316646059 C
atom 6.1331030970927296 3.7751039999999998 6.5576730934159997 C
atom 7.1471136515797973 0.0111360000000000 3.4061777804467819 C
atom 17.9440689291392168 5.5568640000000000 4.6027048446338243 C
atom 18.5189776387797060 2.7951359999999998 0.5982635320935212 C
atom 6.5722049419393054 2.7728639999999998 7.4106190929870843 C
atom 6.2166512115820876 0.9743999999999998 3.6544531418242805 C
atom 18.8745313691369283 4.5935999999999995 4.3544294832563253 C
atom 19.4494400787774211 3.7584000000000000 0.3499881707160225 C
atom 5.6417425019415957 1.8095999999999999 7.6588944543645834 C
atom 4.9418789918992401 0.9632639999999999 3.0658002688808557 C
atom 20.1493035888197802 4.6047359999999991 4.9430823561997492 C
atom 20.7242122984602730 3.7472639999999999 0.9386410436594470 C
atom 4.3669702822587473 1.8207359999999999 7.0702415814211594 C
atom 8.4513589414568280 0.0055680000000000 4.0637070439658993 C
atom 16.6398236392621861 5.5624319999999994 3.9451755811147065 C
atom 16.0649149296216933 2.7895679999999996 7.9496168936550093 C
atom 9.0262676510973190 2.7784320000000000 0.0592657314255965 C
atom 9.3753288623576765 4.5991679999999997 3.8058210234383041 C
atom 15.7158537183613394 0.9688319999999999 4.2030616016423021 C
atom 16.2907624280018304 1.8151679999999999 0.1986202891019990 C
atom 8.8004201527171837 3.7528320000000002 7.8102623359786065 C
atom 10.7096914699757200 4.5824639999999999 4.3632392541439140 C
atom 14.3814911107432941 0.9855359999999999 3.6456433709366918 C
atom 13.8065824011028013 1.7984639999999998 7.6500846834769947 C
atom 11.2846001796162128 3.7695360000000000 0.3587979416036111 C
atom 11.0226805729516730 0.0167040000000000 5.2538270020528772 C
atom 14.0685020077673411 5.5512959999999998 2.7550556230277281 C
atom 13.4935932981268500 2.8007039999999996 6.7594969355680314 C
atom 11.5975892825921658 2.7672960000000000 1.2493856895125746 C
atom 10.0881528118577872 0.9966719999999999 5.5669743126935298 C
atom 15.0030297688612269 4.5713279999999994 2.4419083123870768 C
atom 14.4281210592207341 3.7806720000000000 6.4463496249273788 C
atom 10.6630615214982800 1.7873280000000000 1.5625330001532260 C
atom 8.8948631539812144 1.0189439999999998 4.9591001214499109 C
atom 16.1963194267378015 4.5490559999999993 3.0497825036306949 C
atom 15.6214107170973087 3.8029440000000001 7.0542238161709978 C
atom 9.4697718636217072 1.7650560000000000 0.9546588089096082 C
atom 0.2998010697458084 3.9198719999999994 7.4162253108246414 H
atom 24.7913815109732063 1.6481279999999998 0.5926573142559648 H
atom 24.2164728013327135 1.1358719999999998 4.5970986267962672 H
atom 0.8747097793863006 4.4321279999999996 3.4117839982843381 H
atom 3.4199141374238602 3.8753279999999997 0.4885418401299169 H
atom 21.6712684432951548 1.6926719999999997 7.5203407849506885 H
atom 22.2461771529356476 1.0913280000000001 3.5158994724103860 H
atom 2.8450054277833678 4.4766719999999998 4.4929831526702202 H
atom 2.5839032180856387 1.7483519999999999 2.2905404307730532 H
atom 22.5072793626333763 3.8196479999999999 5.7183421943075521 H
atom 23.0821880722738690 4.5323519999999995 1.7139008817672496 H
atom 2.0089945084451464 1.0356479999999999 6.2949817433133566 H
atom 0.3862275077558939 1.6314239999999998 1.5136788161402346 H
atom 24.7049550729631200 3.9365759999999996 6.4952038089403716 H
atom 25.2798637826036128 4.4154239999999998 2.4907624964000683 H
atom -0.1886812018845981 1.1525759999999998 5.5181201286805370 H
atom 5.3871699348500099 3.9365759999999996 1.2253590416373326 H
atom 19.7040126458690068 1.6314239999999998 6.7835235834432730 H
atom 20.2789213555094996 1.1525759999999998 2.7790822709029701 H
atom 4.8122612252095172 4.4154239999999998 5.2298003541776357 H
atom 7.2534466000228939 3.8085119999999999 2.4827536137749879 H
atom 17.8377359806961202 1.7594879999999999 5.5261290113056178 H
atom 18.4126446903366130 1.0245119999999999 1.5216876987653152 H
atom 6.6785378903824020 4.5434879999999991 6.4871949263152908 H
atom 6.4814158548774836 1.7038079999999998 4.2046633781673179 H
atom 18.6097667258415314 3.8641919999999996 3.8042192469132874 H
atom 18.0348580162010386 4.4878080000000002 7.8086605594535907 H
atom 7.0563245645179755 1.0801920000000000 0.2002220656270152 H
atom 4.3032870406755155 1.6314239999999998 3.2916507589081290 H
atom 20.7878955400435004 3.9365759999999996 4.7172318661724768 H
atom 21.3628042496839932 4.4154239999999998 0.7127905536321739 H
atom 3.7283783310350236 1.1525759999999998 7.2960920714484319 H
atom 9.1088394929333578 3.8641919999999996 3.2676241110328870 H
atom 15.9823430877856580 1.7038079999999998 4.7412585140477184 H
atom 16.5572517974261508 1.0801920000000000 0.7368172015074157 H
atom 8.5339307832928650 4.4878080000000002 7.2720654235731903 H
atom 11.8877230845683428 0.0278400000000000 5.6622800159319882 H
atom 13.2034594961506730 5.5401599999999993 2.3466026091486172 H
atom 12.6285507865101803 2.8118399999999997 6.3510439216889205 H
atom 12.4626317942088356 2.7561599999999999 1.6578387033916853 H
atom 10.2829582303801121 1.6425599999999998 6.2389195649377918 H
atom 14.8082243503389002 3.9254399999999996 1.7699630601428138 H
atom 14.2333156406984092 4.4265600000000003 5.7744043726831169 H
atom 10.8578669400206049 1.1414399999999998 2.2344782523974893 H
atom 8.3184116690794507 1.7594879999999999 5.1176759974265069 H
atom 16.7727709116395651 3.8085119999999999 2.8912066276540984 H
atom 16.1978622019990723 4.5434879999999991 6.8956479401944017 H
atom 8.8933203787199417 1.0245119999999999 1.1132346848862043 H
atom 11.3532481161666983 1.6202879999999997 4.0845301387911093 H
atom 13.7379344645523194 3.9477119999999997 3.9243524862894970 H
atom 13.1630257549118266 4.4042880000000002 7.9287937988297994 H
atom 11.9281568258071911 1.1637119999999999 0.0800888262508061 H
