#=======================================================
# FHI-aims file: pahs_geometry_fix/PERLEN07.in
# Created using the Atomic Simulation Environment (ASE)
# Tue May 25 14:20:53 2021
#=======================================================
lattice_vector -0.0000000000000009 -5.8231999999999999 -0.0000000000000004 
lattice_vector -9.6785868129409565 0.0000000000000000 1.1357738790645848 
lattice_vector 0.0000000000000000 0.0000000000000000 -10.5823999999999998 
atom -1.9182959063248990 -5.6188056799999995 -7.3603539371693998 H
atom -7.7602909066160599 -0.2043943200000001 -2.0862721837660159 H
atom -7.7602909066160599 -2.7072056799999999 -7.3774721837660158 H
atom -1.9182959063248985 -3.1159943199999995 -2.0691539371693994 H
atom -6.1797776800628021 -5.6473393600000001 -8.2624406982172616 H
atom -3.4988091328781561 -0.1758606399999994 -1.1841854227181519 H
atom -3.4988091328781556 -2.7357393599999997 -6.4753854227181531 H
atom -6.1797776800628021 -3.0874606400000002 -2.9712406982172630 H
atom -4.2934211102206090 -5.6415161600000001 -7.8604996672469500 H
atom -5.3851657027203483 -0.1816838399999994 -1.5861264536884652 H
atom -5.3851657027203483 -2.7299161600000001 -6.8773264536884655 H
atom -4.2934211102206090 -3.0932838399999993 -2.5692996672469501 H
atom -9.2324039608643780 -1.9682415999999998 -1.1494716967602936 H
atom -0.4461828520765790 -3.8549583999999997 -8.2971544241751225 H
atom -0.4461828520765792 -4.8798415999999998 -3.0059544241751230 H
atom -9.2324039608643780 -0.9433584000000002 -6.4406716967602931 H
atom -8.5539350252772177 -5.6589857600000002 -8.7891560056827203 H
atom -1.1246517876637379 -0.1642142399999994 -0.6574701152526954 H
atom -1.1246517876637392 -2.7473857599999998 -5.9486701152526953 H
atom -8.5539350252772177 -3.0758142400000001 -3.4979560056827199 H
atom -9.5198579892087256 -3.9481295999999997 0.2652639874479242 H
atom -0.1587288237322317 -1.8750703999999998 -9.7118901083833400 H
atom -0.1587288237322316 -1.0365296000000002 -4.4206901083833410 H
atom -9.5198579892087256 -4.7866704000000002 -5.0259360125520747 H
atom -5.7063979990418598 -3.9235556960000002 -9.4512606146423117 C
atom -3.9721888138990988 -1.8996443039999997 0.0046344937068970 C
atom -3.9721888138990984 -1.0119556960000002 -5.2865655062931030 C
atom -5.7063979990418598 -4.8112443039999997 -4.1600606146423109 C
atom -4.2673857116937981 -3.9110358159999996 -9.1334428989816345 C
atom -5.4112011012471584 -1.9121641840000003 -0.3131832219537805 C
atom -5.4112011012471584 -0.9994358159999996 -5.6043832219537819 C
atom -4.2673857116937981 -4.8237641839999998 -3.8422428989816337 C
atom -6.2415270639293645 -2.9255174479999999 0.2578172191311711 C
atom -3.4370597490115919 -2.8976825520000000 -9.7044433400665842 C
atom -3.4370597490115924 -0.0139174480000000 -4.4132433400665851 C
atom -6.2415270639293654 -5.8092825520000000 -5.0333827808688314 C
atom -3.6906387235106464 -4.8542195200000000 -8.2956935204350923 C
atom -5.9879480894303105 -0.9689804799999999 -1.1509326005003226 C
atom -5.9879480894303114 -1.9426195200000000 -6.4421326005003223 C
atom -3.6906387235106459 -3.8805804799999999 -3.0044935204350929 C
atom -7.6371792823554507 -2.9383284879999998 -0.0501675795077176 C
atom -2.0414075305855057 -2.8848715120000001 -9.3964585414276982 C
atom -2.0414075305855066 -0.0267284879999999 -4.1052585414276974 C
atom -7.6371792823554507 -5.7964715120000001 -5.3413675795077173 C
atom -6.5651790069541107 -4.8752995040000000 -8.9160758783529115 C
atom -3.1134078059868466 -0.9479004959999996 -0.5305502425825039 C
atom -3.1134078059868471 -1.9636995039999998 -5.8217502425825041 C
atom -6.5651790069541107 -3.8595004959999994 -3.6248758783529116 C
atom -8.4665373863563609 -3.9392201039999999 0.5161688521893270 C
atom -1.2120494265845969 -1.8839798959999998 -9.9627949731247423 C
atom -1.2120494265845967 -1.0276201040000001 -4.6715949731247424 C
atom -8.4665373863563609 -4.7955798959999996 -4.7750311478106733 C
atom -8.1770508547812959 -1.9481515600000001 -0.9081178565334965 C
atom -1.5015359581596590 -3.8750484400000000 -8.5385082644019210 C
atom -1.5015359581596592 -4.8597515600000003 -3.2473082644019202 C
atom -8.1770508547812959 -0.9634484399999993 -6.1993178565334954 C
atom -7.9378929746335256 -4.8818214879999999 -9.2235777410851814 C
atom -1.7406938383074306 -0.9413785120000001 -0.2230483798502342 C
atom -1.7406938383074309 -1.9702214879999997 -5.5142483798502351 C
atom -7.9378929746335256 -3.8529785120000000 -3.9323777410851815 C
atom -2.3146340363148301 -4.8349447280000000 -7.9935515488217046 C
atom -7.3639527766261272 -0.9882552720000002 -1.4530745721137106 C
atom -7.3639527766261272 -1.9233447279999998 -6.7442745721137110 C
atom -2.3146340363148301 -3.8998552719999999 -2.7023515488217047 C
