#=======================================================
# FHI-aims file: pahs_geometry_fix/BNPYRE10.in
# Created using the Atomic Simulation Environment (ASE)
# Tue May 25 14:20:52 2021
#=======================================================
lattice_vector -4.5011967976933960 0.0000000000000000 0.5526774723423433 
lattice_vector 0.0000000000000000 0.0000000000000000 -13.4900000000000002 
lattice_vector -0.0000000000000033 -20.3999999999999986 -0.0000000000000012 
atom -3.6504706029293437 -0.8772000000000008 -12.4617085699303587 H
atom -0.8507261947640542 -19.5227999999999966 -0.4756139577272989 H
atom -0.8507261947640534 -11.0771999999999977 -7.2206139577272968 H
atom -3.6504706029293450 -9.3227999999999991 -5.7167085699303604 H
atom -1.5799200759903822 -1.1627999999999987 -7.0366502072078383 H
atom -2.9212767217030171 -19.2371999999999979 -5.9006723204498197 H
atom -2.9212767217030158 -11.3627999999999982 -12.6456723204498189 H
atom -1.5799200759903835 -9.0371999999999986 -0.2916502072078385 H
atom -0.3916041213993285 -19.6043999999999983 -7.7086670599062161 H
atom -4.1095926762940707 -0.7955999999999984 -5.2286554677514410 H
atom -4.1095926762940724 -9.4043999999999990 -11.9736554677514420 H
atom -0.3916041213993266 -10.9955999999999978 -0.9636670599062163 H
atom -4.3706620905602902 -17.9315999999999995 -8.8658801743555866 H
atom -0.1305347071331090 -2.4683999999999977 -4.0714423533020732 H
atom -0.1305347071331099 -7.7315999999999994 -10.8164423533020706 H
atom -4.3706620905602893 -12.6683999999999983 -2.1208801743555834 H
atom -0.7607022588101869 -18.0539999999999985 -11.5079975071741458 H
atom -3.7404945388832123 -2.3459999999999996 -1.4293250204835117 H
atom -3.7404945388832131 -7.8539999999999974 -8.1743250204835132 H
atom -0.7607022588101860 -12.5459999999999994 -4.7629975071741448 H
atom -2.3946366963728898 -19.7267999999999972 -12.1302655847138752 H
atom -2.1065601013205093 -0.6732000000000006 -0.8070569429437828 H
atom -2.1065601013205102 -9.5267999999999962 -7.5520569429437838 H
atom -2.3946366963728885 -10.8731999999999971 -5.3852655847138751 H
atom -0.7922106363940383 -2.6315999999999975 -13.3522587648677469 H
atom -3.7089861612993609 -17.7683999999999997 0.4149362372100912 H
atom -3.7089861612993609 -12.8315999999999999 -6.3300637627899086 H
atom -0.7922106363940387 -7.5683999999999969 -6.6072587648677485 H
atom -2.0795529205343497 -4.5899999999999990 -12.6141230077778363 H
atom -2.4216438771590489 -15.8099999999999969 -0.3231995198798194 H
atom -2.4216438771590489 -14.7899999999999956 -7.0681995198798209 H
atom -2.0795529205343497 -5.6099999999999977 -5.8691230077778371 H
atom -2.6962168818183452 -6.0384000000000002 -10.6228261940669366 H
atom -1.8049799158750541 -14.3615999999999975 -2.3144963335907192 H
atom -1.8049799158750541 -16.2383999999999986 -9.0594963335907224 H
atom -2.6962168818183452 -4.1615999999999991 -3.8778261940669374 H
atom -1.6474380279557839 -5.8751999999999978 -8.5797100451227024 H
atom -2.8537587697376154 -14.5247999999999990 -4.3576124825349547 H
atom -2.8537587697376159 -16.0751999999999988 -11.1026124825349566 H
atom -1.6474380279557830 -4.3247999999999989 -1.8347100451227030 H
atom -0.1485394943238824 -4.7123999999999970 -7.1449516434127034 H
atom -4.3526573033695168 -15.6875999999999998 -5.7923708842449546 H
atom -4.3526573033695168 -14.9123999999999981 -12.5373708842449556 H
atom -0.1485394943238826 -5.4875999999999996 -0.3999516434127020 H
atom -2.8222503921537596 -3.0192000000000001 -6.2770612248413507 H
atom -1.6789464055396395 -17.3807999999999971 -6.6602613028163073 H
atom -1.6789464055396384 -13.2191999999999990 0.0847386971836931 H
atom -2.8222503921537605 -7.1807999999999987 -13.0220612248413516 H
atom -3.9736565330037306 -1.5238799999999975 -11.7043583274161804 C
atom -0.5275402646896684 -18.8761200000000002 -1.2329642002414780 C
atom -0.5275402646896677 -11.7238799999999994 -7.9779642002414795 C
atom -3.9736565330037315 -8.6761199999999974 -4.9593583274161812 C
atom -2.9901450327077232 -2.1685199999999965 -8.1450463551229824 C
atom -1.5110517649856758 -18.2314799999999977 -4.7922761725346747 C
atom -1.5110517649856750 -12.3685199999999984 -11.5372761725346749 C
atom -2.9901450327077241 -8.0314800000000002 -1.4000463551229818 C
atom -2.0890054338095050 -1.1729999999999976 -7.9238383850859195 C
atom -2.4121913638838941 -19.2270000000000003 -5.0134841425717385 C
atom -2.4121913638838928 -11.3729999999999993 -11.7584841425717386 C
atom -2.0890054338095063 -9.0269999999999992 -1.1788383850859196 C
atom -1.7653693840553499 -0.2305199999999973 -8.9335068953473336 C
atom -2.7358274136380487 -20.1694800000000001 -4.0038156323103244 C
atom -2.7358274136380474 -10.4305199999999996 -10.7488156323103237 C
atom -1.7653693840553508 -9.9694799999999972 -2.1885068953473339 C
atom -0.8300206894946653 -19.5880799999999979 -8.6719822741000741 C
atom -3.6711761081987335 -0.8119199999999965 -4.2653402535575848 C
atom -3.6711761081987349 -9.3880800000000004 -11.0103402535575849 C
atom -0.8300206894946640 -11.0119199999999999 -1.9269822741000724 C
atom -0.5059345200607409 -18.6598799999999976 -9.6317930521087227 C
atom -3.9952622776326585 -1.7401200000000008 -3.3055294755489344 C
atom -3.9952622776326598 -8.4598799999999983 -10.0505294755489363 C
atom -0.5059345200607398 -11.9401199999999985 -2.8867930521087217 C
atom -1.1352018323782775 -18.7333199999999991 -10.8765487414752631 C
atom -3.3659949653151222 -1.6666799999999975 -2.0607737861823945 C
atom -3.3659949653151231 -8.5333199999999998 -8.8057737861823959 C
atom -1.1352018323782764 -11.8666799999999970 -4.1315487414752621 C
atom -2.0435433461528048 -19.7125200000000014 -11.1508324275565780 C
atom -2.4576534515405943 -0.6874799999999968 -1.7864901001010811 C
atom -2.4576534515405957 -9.5125200000000003 -8.5314901001010810 C
atom -2.0435433461528034 -10.8874800000000000 -4.4058324275565761 C
atom -2.3919359782942711 -0.3019199999999984 -10.1947821911972785 C
atom -2.1092608193991285 -20.0980799999999995 -2.7425403364603795 C
atom -2.1092608193991267 -10.5019199999999984 -9.4875403364603770 C
atom -2.3919359782942724 -9.8980799999999984 -3.4497821911972788 C
atom -3.3295352712538051 -1.3586399999999998 -10.4465874737083677 C
atom -1.1716615264395940 -19.0413599999999974 -2.4907350539492898 C
atom -1.1716615264395926 -11.5586399999999987 -9.2357350539492877 C
atom -3.3295352712538064 -8.8413599999999999 -3.7015874737083689 C
atom -3.6324658157385707 -2.2684799999999989 -9.4340652798197286 C
atom -0.8687309819548281 -18.1315199999999983 -3.5032572478379271 C
atom -0.8687309819548272 -12.4684799999999978 -10.2482572478379286 C
atom -3.6324658157385716 -7.9315199999999999 -2.6890652798197285 C
atom -0.3704484964501675 -2.5112399999999995 -12.4745836440262234 C
atom -4.1307483012432318 -17.8887599999999978 -0.4627388836314322 C
atom -4.1307483012432309 -12.7112399999999983 -7.2077388836314338 C
atom -0.3704484964501684 -7.6887599999999994 -5.7295836440262269 C
atom -0.0706687897237866 -3.3129599999999995 -10.1843669636842264 C
atom -4.4305280079696123 -17.0870399999999982 -2.7529555639734316 C
atom -4.4305280079696114 -13.5129599999999996 -9.4979555639734308 C
atom -0.0706687897237876 -6.8870399999999972 -3.4393669636842250 C
atom -0.7188411285916352 -3.4496399999999983 -11.4375934076669292 C
atom -3.7823556691017628 -16.9503599999999999 -1.4997291199907294 C
atom -3.7823556691017632 -13.6496399999999998 -8.2447291199907280 C
atom -0.7188411285916357 -6.7503599999999988 -4.6925934076669273 C
atom -1.6595912593095559 -4.4839199999999995 -11.6364008159473773 C
atom -2.8416055383838432 -15.9160799999999991 -1.3009217117102791 C
atom -2.8416055383838428 -14.6839199999999988 -8.0459217117102817 C
atom -1.6595912593095565 -5.7160799999999998 -4.8914008159473772 C
atom -1.9526191708393958 -5.3488799999999994 -10.6075575124978929 C
atom -2.5485776268540028 -15.0511199999999992 -2.3297650151597655 C
atom -2.5485776268540032 -15.5488799999999987 -9.0747650151597661 C
atom -1.9526191708393954 -4.8511199999999999 -3.8625575124978924 C
atom -1.3229017388420903 -5.2570799999999984 -9.3857900908785847 C
atom -3.1782950588513090 -15.1429199999999984 -3.5515324367790724 C
atom -3.1782950588513095 -15.4570799999999995 -10.2965324367790743 C
atom -1.3229017388420896 -4.9429199999999991 -2.6407900908785855 C
atom -0.3857525655623247 -4.2391199999999998 -9.1636075406202622 C
atom -4.1154442321310745 -16.1608799999999988 -3.7737149870373972 C
atom -4.1154442321310745 -14.4391199999999991 -10.5187149870373950 C
atom -0.3857525655623250 -5.9608799999999977 -2.4186075406202612 C
atom -4.2225727159161757 -4.1065199999999979 -7.3475522631956469 C
atom -0.2786240817772231 -16.2934799999999989 -5.5897702644620111 C
atom -0.2786240817772233 -14.3065199999999990 -12.3347702644620103 C
atom -4.2225727159161757 -6.0934799999999987 -0.6025522631956474 C
atom -3.3295352712538056 -3.1313999999999993 -7.1199534737083674 C
atom -1.1716615264395938 -17.2685999999999993 -5.8173690539492888 C
atom -1.1716615264395926 -13.3313999999999986 -12.5623690539492880 C
atom -3.3295352712538064 -7.0686000000000000 -0.3749534737083696 C
