# 
# This is the geometry file that corresponds to the current relaxation step.
# If you do not want this file to be written, set the "write_restart_geometry" flag to .false.
#  aims_uuid : 09C2732D-CDC9-44DF-ACFB-7CA8EFB92B89                                
# 
lattice_vector      0.00000000      0.00000000      7.65600000
lattice_vector     19.99700000      0.00000000      0.00000000
lattice_vector      0.00000000     26.63500000      0.00000000
atom      19.73331747      0.29979681      2.38096258 H
atom       0.26368252     26.33520319      5.27503742 H
atom       0.26368254     13.01770319      6.20896257 H
atom      19.73331748     13.61729681      1.44703743 H
atom       9.73481748     26.33520319      1.44703742 H
atom      10.26218253      0.29979681      6.20896258 H
atom      10.26218252     13.61729681      5.27503743 H
atom       9.73481746     13.01770319      2.38096257 H
atom      18.26316428      1.88450494      3.49023553 H
atom       1.73383573     24.75049506      4.16576447 H
atom       1.73383573     11.43299506      7.31823553 H
atom      18.26316427     15.20200494      0.33776447 H
atom       8.26466427     24.75049506      0.33776447 H
atom      11.73233572      1.88450494      7.31823553 H
atom      11.73233573     15.20200494      4.16576447 H
atom       8.26466427     11.43299506      3.49023553 H
atom      19.13153437      4.06051019      4.25927170 H
atom       0.86546562     22.57448983      3.39672825 H
atom       0.86546563      9.25698981      0.43127171 H
atom      19.13153437     17.37801018      7.22472824 H
atom       9.13303438     22.57448983      7.22472825 H
atom      10.86396563      4.06051019      0.43127170 H
atom      10.86396563     17.37801018      3.39672824 H
atom       9.13303437      9.25698981      4.25927171 H
atom       1.43751969      4.73001739      3.72774240 H
atom      18.55948031     21.90498261      3.92825758 H
atom      18.55948031      8.58748261      7.55574241 H
atom       1.43751969     18.04751739      0.10025757 H
atom      11.43601969     21.90498261      0.10025758 H
atom       8.56098031      4.73001739      7.55574240 H
atom       8.56098031     18.04751739      3.92825757 H
atom      11.43601969      8.58748261      3.72774241 H
atom       1.70039750      5.48927277      1.79438046 H
atom      18.29660249     21.14572722      5.86161955 H
atom      18.29660249      7.82822728      5.62238044 H
atom       1.70039751     18.80677272      2.03361957 H
atom      11.69889751     21.14572722      2.03361955 H
atom       8.29810250      5.48927277      5.62238046 H
atom       8.29810249     18.80677272      5.86161957 H
atom      11.69889751      7.82822728      1.79438044 H
atom       7.57664124      1.81752409      1.45519710 H
atom      12.42035876     24.81747592      6.20080291 H
atom      12.42035876     11.49997590      5.28319712 H
atom       7.57664124     15.13502409      2.37280289 H
atom      17.57514124     24.81747592      2.37280291 H
atom       2.42185876      1.81752409      5.28319710 H
atom       2.42185876     15.13502409      6.20080289 H
atom      17.57514124     11.49997590      1.45519712 H
atom       2.45162481      7.77513354      1.44134984 H
atom      17.54537522     18.85986641      6.21465009 H
atom      17.54537526      5.54236650      5.26934987 H
atom       2.45162471     21.09263354      2.38665008 H
atom      12.45012478     18.85986641      2.38665009 H
atom       7.54687519      7.77513354      5.26934984 H
atom       7.54687529     21.09263354      6.21465008 H
atom      12.45012474      5.54236650      1.44134987 H
atom       4.20996847      9.43687250      1.36638719 H
atom      15.78703153     17.19812750      6.28961281 H
atom      15.78703153      3.88062748      5.19438719 H
atom       4.20996847     22.75437252      2.46161280 H
atom      14.20846847     17.19812750      2.46161281 H
atom       5.78853153      9.43687250      5.19438719 H
atom       5.78853153     22.75437252      6.28961280 H
atom      14.20846847      3.88062748      1.36638719 H
atom       6.59538052     10.03278144      1.52332572 H
atom      13.40161948     16.60221856      6.13267428 H
atom      13.40161949      3.28471855      5.35132573 H
atom       6.59538051     23.35028144      2.30467428 H
atom      16.59388052     16.60221856      2.30467428 H
atom       3.40311948     10.03278144      5.35132572 H
atom       3.40311949     23.35028144      6.13267428 H
atom      16.59388051      3.28471855      1.52332573 H
atom       8.28036346      8.33290372      1.94839277 H
atom      11.71663654     18.30209628      5.70760724 H
atom      11.71663654      4.98459626      5.77639277 H
atom       8.28036345     21.65040374      1.87960723 H
atom      18.27886346     18.30209628      1.87960724 H
atom       1.71813654      8.33290372      5.77639277 H
atom       1.71813655     21.65040374      5.70760723 H
atom      18.27886346      4.98459626      1.94839277 H
atom       9.54300101      6.98780286      2.60726950 H
atom      10.45399899     19.64719714      5.04873050 H
atom      10.45399900      6.32969713      6.43526948 H
atom       9.54300100     20.30530287      1.22073052 H
atom      19.54150101     19.64719714      1.22073050 H
atom       0.45549899      6.98780286      6.43526950 H
atom       0.45549900     20.30530287      5.04873052 H
atom      19.54150100      6.32969713      2.60726948 H
atom      11.07460647      5.30108399      3.43689689 H
atom       8.92239353     21.33391601      4.21910311 H
atom       8.92239352      8.01641600      7.26489689 H
atom      11.07460648     18.61858400      0.39110311 H
atom       1.07610647     21.33391601      0.39110311 H
atom      18.92089353      5.30108399      7.26489689 H
atom      18.92089352     18.61858400      4.21910311 H
atom       1.07610648      8.01641600      3.43689689 H
atom      10.26926489      3.02075756      3.92142149 H
atom       9.72773511     23.61424245      3.73457851 H
atom       9.72773509     10.29674244      0.09342147 H
atom      10.26926491     16.33825755      7.56257854 H
atom       0.27076489     23.61424245      7.56257851 H
atom      19.72623511      3.02075756      0.09342149 H
atom      19.72623509     16.33825755      3.73457854 H
atom       0.27076491     10.29674244      3.92142147 H
atom       6.75705561     26.25379137      0.81850921 H
atom      13.23994439      0.38120863      6.83749080 H
atom      13.23994439     13.69870863      4.64650921 H
atom       6.75705560     12.93629137      3.00949080 H
atom      16.75555561      0.38120863      3.00949080 H
atom       3.24144439     26.25379137      4.64650921 H
atom       3.24144440     12.93629137      6.83749080 H
atom      16.75555561     13.69870863      0.81850921 H
atom       7.95972208      2.38287523      3.39415139 H
atom      12.03727792     24.25212477      4.26184860 H
atom      12.03727792     10.93462477      7.22215138 H
atom       7.95972208     15.70037523      0.43384861 H
atom      17.95822208     24.25212477      0.43384860 H
atom       2.03877792      2.38287523      7.22215139 H
atom       2.03877792     15.70037523      4.26184861 H
atom      17.95822208     10.93462477      3.39415138 H
atom       4.96927026     24.62460203      0.48484129 H
atom      15.02772975      2.01039798      7.17115871 H
atom      15.02772975     15.32789797      4.31284129 H
atom       4.96927025     11.30710203      3.34315871 H
atom      14.96777025      2.01039798      3.34315871 H
atom       5.02922974     24.62460203      4.31284129 H
atom       5.02922975     11.30710203      7.17115871 H
atom      14.96777025     15.32789797      0.48484129 H
atom       2.57097240     24.08477097      0.60286604 H
atom      17.42602760      2.55022904      7.05313395 H
atom      17.42602760     15.86772903      4.43086604 H
atom       2.57097240     10.76727097      3.22513396 H
atom      12.56947240      2.55022904      3.22513395 H
atom       7.42752760     24.08477097      4.43086604 H
atom       7.42752760     10.76727097      7.05313396 H
atom      12.56947240     15.86772903      0.60286604 H
atom       0.93293584     25.71913293      1.35965658 H
atom      19.06406416      0.91586705      6.29634342 H
atom      19.06406416     14.23336706      5.18765657 H
atom       0.93293584     12.40163296      2.46834343 H
atom      10.93143584      0.91586705      2.46834342 H
atom       9.06556416     25.71913293      5.18765658 H
atom       9.06556416     12.40163296      6.29634343 H
atom      10.93143584     14.23336706      1.35965657 H
atom       5.62315640      2.61555700      2.02577760 C
  constrain_relaxation .true.
atom      14.37384360     24.01944300      5.63022240 C
  constrain_relaxation .true.
atom      14.37384360     10.70194300      5.85377760 C
  constrain_relaxation .true.
atom       5.62315640     15.93305700      1.80222240 C
  constrain_relaxation .true.
atom      15.62165640     24.01944300      1.80222240 C
  constrain_relaxation .true.
atom       4.37534360      2.61555700      5.85377760 C
  constrain_relaxation .true.
atom       4.37534360     15.93305700      5.63022240 C
  constrain_relaxation .true.
atom      15.62165640     10.70194300      2.02577760 C
  constrain_relaxation .true.
atom       0.11598260      1.28913400      2.62983600 C
  constrain_relaxation .true.
atom      19.88101740     25.34586600      5.02616400 C
  constrain_relaxation .true.
atom      19.88101740     12.02836600      6.45783600 C
  constrain_relaxation .true.
atom       0.11598260     14.60663400      1.19816400 C
  constrain_relaxation .true.
atom      10.11448260     25.34586600      1.19816400 C
  constrain_relaxation .true.
atom       9.88251740      1.28913400      6.45783600 C
  constrain_relaxation .true.
atom       9.88251740     14.60663400      5.02616400 C
  constrain_relaxation .true.
atom      10.11448260     12.02836600      2.62983600 C
  constrain_relaxation .true.
atom      19.28710650      2.17607950      3.25456560 C
  constrain_relaxation .true.
atom       0.70989350     24.45892050      4.40143440 C
  constrain_relaxation .true.
atom       0.70989350     11.14142050      7.08256560 C
  constrain_relaxation .true.
atom      19.28710650     15.49357950      0.57343440 C
  constrain_relaxation .true.
atom       9.28860650     24.45892050      0.57343440 C
  constrain_relaxation .true.
atom      10.70839350      2.17607950      7.08256560 C
  constrain_relaxation .true.
atom      10.70839350     15.49357950      4.40143440 C
  constrain_relaxation .true.
atom       9.28860650     11.14142050      3.25456560 C
  constrain_relaxation .true.
atom      19.76103540      3.39329900      3.67181760 C
  constrain_relaxation .true.
atom       0.23596460     23.24170100      3.98418240 C
  constrain_relaxation .true.
atom       0.23596460      9.92420100      7.49981760 C
  constrain_relaxation .true.
atom      19.76103540     16.71079900      0.15618240 C
  constrain_relaxation .true.
atom       9.76253540     23.24170100      0.15618240 C
  constrain_relaxation .true.
atom      10.23446460      3.39329900      7.49981760 C
  constrain_relaxation .true.
atom      10.23446460     16.71079900      3.98418240 C
  constrain_relaxation .true.
atom       9.76253540      9.92420100      3.67181760 C
  constrain_relaxation .true.
atom       1.05584160      3.78483350      3.35639040 C
  constrain_relaxation .true.
atom      18.94115840     22.85016650      4.29960960 C
  constrain_relaxation .true.
atom      18.94115840      9.53266650      7.18439040 C
  constrain_relaxation .true.
atom       1.05584160     17.10233350      0.47160960 C
  constrain_relaxation .true.
atom      11.05434160     22.85016650      0.47160960 C
  constrain_relaxation .true.
atom       8.94265840      3.78483350      7.18439040 C
  constrain_relaxation .true.
atom       8.94265840     17.10233350      4.29960960 C
  constrain_relaxation .true.
atom      11.05434160      9.53266650      3.35639040 C
  constrain_relaxation .true.
atom       1.89971500      2.91653250      2.64285120 C
  constrain_relaxation .true.
atom      18.09728500     23.71846750      5.01314880 C
  constrain_relaxation .true.
atom      18.09728500     10.40096750      6.47085120 C
  constrain_relaxation .true.
atom       1.89971500     16.23403250      1.18514880 C
  constrain_relaxation .true.
atom      11.89821500     23.71846750      1.18514880 C
  constrain_relaxation .true.
atom       8.09878500      2.91653250      6.47085120 C
  constrain_relaxation .true.
atom       8.09878500     16.23403250      5.01314880 C
  constrain_relaxation .true.
atom      11.89821500     10.40096750      2.64285120 C
  constrain_relaxation .true.
atom       3.27950800      3.30806700      2.30751840 C
  constrain_relaxation .true.
atom      16.71749200     23.32693300      5.34848160 C
  constrain_relaxation .true.
atom      16.71749200     10.00943300      6.13551840 C
  constrain_relaxation .true.
atom       3.27950800     16.62556700      1.52048160 C
  constrain_relaxation .true.
atom      13.27800800     23.32693300      1.52048160 C
  constrain_relaxation .true.
atom       6.71899200      3.30806700      6.13551840 C
  constrain_relaxation .true.
atom       6.71899200     16.62556700      5.34848160 C
  constrain_relaxation .true.
atom      13.27800800     10.00943300      2.30751840 C
  constrain_relaxation .true.
atom       4.23136520      2.30925450      2.03113680 C
  constrain_relaxation .true.
atom      15.76563480     24.32574550      5.62486320 C
  constrain_relaxation .true.
atom      15.76563480     11.00824550      5.85913680 C
  constrain_relaxation .true.
atom       4.23136520     15.62675450      1.79686320 C
  constrain_relaxation .true.
atom      14.22986520     24.32574550      1.79686320 C
  constrain_relaxation .true.
atom       5.76713480      2.30925450      5.85913680 C
  constrain_relaxation .true.
atom       5.76713480     15.62675450      5.62486320 C
  constrain_relaxation .true.
atom      14.22986520     11.00824550      2.03113680 C
  constrain_relaxation .true.
atom       3.77143420      0.97484100      1.70039760 C
  constrain_relaxation .true.
atom      16.22556580     25.66015900      5.95560240 C
  constrain_relaxation .true.
atom      16.22556580     12.34265900      5.52839760 C
  constrain_relaxation .true.
atom       3.77143420     14.29234100      2.12760240 C
  constrain_relaxation .true.
atom      13.76993420     25.66015900      2.12760240 C
  constrain_relaxation .true.
atom       6.22706580      0.97484100      5.52839760 C
  constrain_relaxation .true.
atom       6.22706580     14.29234100      5.95560240 C
  constrain_relaxation .true.
atom      13.76993420     12.34265900      1.70039760 C
  constrain_relaxation .true.
atom       3.68344740      4.65313450      2.20569360 C
  constrain_relaxation .true.
atom      16.31355260     21.98186550      5.45030640 C
  constrain_relaxation .true.
atom      16.31355260      8.66436550      6.03369360 C
  constrain_relaxation .true.
atom       3.68344740     17.97063450      1.62230640 C
  constrain_relaxation .true.
atom      13.68194740     21.98186550      1.62230640 C
  constrain_relaxation .true.
atom       6.31505260      4.65313450      6.03369360 C
  constrain_relaxation .true.
atom       6.31505260     17.97063450      5.45030640 C
  constrain_relaxation .true.
atom      13.68194740      8.66436550      2.20569360 C
  constrain_relaxation .true.
atom       2.74958750      5.72918850      1.93237440 C
  constrain_relaxation .true.
atom      17.24741250     20.90581150      5.72362560 C
  constrain_relaxation .true.
atom      17.24741250      7.58831150      5.76037440 C
  constrain_relaxation .true.
atom       2.74958750     19.04668850      1.89562560 C
  constrain_relaxation .true.
atom      12.74808750     20.90581150      1.89562560 C
  constrain_relaxation .true.
atom       7.24891250      5.72918850      5.76037440 C
  constrain_relaxation .true.
atom       7.24891250     19.04668850      5.72362560 C
  constrain_relaxation .true.
atom      12.74808750      7.58831150      1.93237440 C
  constrain_relaxation .true.
atom       6.52302140      1.59543650      1.58632320 C
  constrain_relaxation .true.
atom      13.47397860     25.03956350      6.06967680 C
  constrain_relaxation .true.
atom      13.47397860     11.72206350      5.41432320 C
  constrain_relaxation .true.
atom       6.52302140     14.91293650      2.24167680 C
  constrain_relaxation .true.
atom      16.52152140     25.03956350      2.24167680 C
  constrain_relaxation .true.
atom       3.47547860      1.59543650      5.41432320 C
  constrain_relaxation .true.
atom       3.47547860     14.91293650      6.06967680 C
  constrain_relaxation .true.
atom      16.52152140     11.72206350      1.58632320 C
  constrain_relaxation .true.
atom       3.17152420      7.00766850      1.72566240 C
  constrain_relaxation .true.
atom      16.82547580     19.62733150      5.93033760 C
  constrain_relaxation .true.
atom      16.82547580      6.30983150      5.55366240 C
  constrain_relaxation .true.
atom       3.17152420     20.32516850      2.10233760 C
  constrain_relaxation .true.
atom      13.17002420     19.62733150      2.10233760 C
  constrain_relaxation .true.
atom       6.82697580      7.00766850      5.55366240 C
  constrain_relaxation .true.
atom       6.82697580     20.32516850      5.93033760 C
  constrain_relaxation .true.
atom      13.17002420      6.30983150      1.72566240 C
  constrain_relaxation .true.
atom       4.53931900      7.35658700      1.78920720 C
  constrain_relaxation .true.
atom      15.45768100     19.27841300      5.86679280 C
  constrain_relaxation .true.
atom      15.45768100      5.96091300      5.61720720 C
  constrain_relaxation .true.
atom       4.53931900     20.67408700      2.03879280 C
  constrain_relaxation .true.
atom      14.53781900     19.27841300      2.03879280 C
  constrain_relaxation .true.
atom       5.45918100      7.35658700      5.61720720 C
  constrain_relaxation .true.
atom       5.45918100     20.67408700      5.86679280 C
  constrain_relaxation .true.
atom      14.53781900      5.96091300      1.78920720 C
  constrain_relaxation .true.
atom       4.96125570      8.67501950      1.57713600 C
  constrain_relaxation .true.
atom      15.03574430     17.95998050      6.07886400 C
  constrain_relaxation .true.
atom      15.03574430      4.64248050      5.40513600 C
  constrain_relaxation .true.
atom       4.96125570     21.99251950      2.25086400 C
  constrain_relaxation .true.
atom      14.95975570     17.95998050      2.25086400 C
  constrain_relaxation .true.
atom       5.03724430      8.67501950      5.40513600 C
  constrain_relaxation .true.
atom       5.03724430     21.99251950      6.07886400 C
  constrain_relaxation .true.
atom      14.95975570      4.64248050      1.57713600 C
  constrain_relaxation .true.
atom       6.27905800      8.99730300      1.65675840 C
  constrain_relaxation .true.
atom      13.71794200     17.63769700      5.99924160 C
  constrain_relaxation .true.
atom      13.71794200      4.32019700      5.48475840 C
  constrain_relaxation .true.
atom       6.27905800     22.31480300      2.17124160 C
  constrain_relaxation .true.
atom      16.27755800     17.63769700      2.17124160 C
  constrain_relaxation .true.
atom       3.71944200      8.99730300      5.48475840 C
  constrain_relaxation .true.
atom       3.71944200     22.31480300      5.99924160 C
  constrain_relaxation .true.
atom      16.27755800      4.32019700      1.65675840 C
  constrain_relaxation .true.
atom       7.23691430      8.03311600      1.89409440 C
  constrain_relaxation .true.
atom      12.76008570     18.60188400      5.76190560 C
  constrain_relaxation .true.
atom      12.76008570      5.28438400      5.72209440 C
  constrain_relaxation .true.
atom       7.23691430     21.35061600      1.93390560 C
  constrain_relaxation .true.
atom      17.23541430     18.60188400      1.93390560 C
  constrain_relaxation .true.
atom       2.76158570      8.03311600      5.72209440 C
  constrain_relaxation .true.
atom       2.76158570     21.35061600      5.76190560 C
  constrain_relaxation .true.
atom      17.23541430      5.28438400      1.89409440 C
  constrain_relaxation .true.
atom       6.87496860      6.68538500      2.09238480 C
  constrain_relaxation .true.
atom      13.12203140     19.94961500      5.56361520 C
  constrain_relaxation .true.
atom      13.12203140      6.63211500      5.92038480 C
  constrain_relaxation .true.
atom       6.87496860     20.00288500      1.73561520 C
  constrain_relaxation .true.
atom      16.87346860     19.94961500      1.73561520 C
  constrain_relaxation .true.
atom       3.12353140      6.68538500      5.92038480 C
  constrain_relaxation .true.
atom       3.12353140     20.00288500      5.56361520 C
  constrain_relaxation .true.
atom      16.87346860      6.63211500      2.09238480 C
  constrain_relaxation .true.
atom       7.83482460      5.65993750      2.44226400 C
  constrain_relaxation .true.
atom      12.16217540     20.97506250      5.21373600 C
  constrain_relaxation .true.
atom      12.16217540      7.65756250      6.27026400 C
  constrain_relaxation .true.
atom       7.83482460     18.97743750      1.38573600 C
  constrain_relaxation .true.
atom      17.83332460     20.97506250      1.38573600 C
  constrain_relaxation .true.
atom       2.16367540      5.65993750      6.27026400 C
  constrain_relaxation .true.
atom       2.16367540     18.97743750      5.21373600 C
  constrain_relaxation .true.
atom      17.83332460      7.65756250      2.44226400 C
  constrain_relaxation .true.
atom       9.19062120      5.96624000      2.73395760 C
  constrain_relaxation .true.
atom      10.80637880     20.66876000      4.92204240 C
  constrain_relaxation .true.
atom      10.80637880      7.35126000      6.56195760 C
  constrain_relaxation .true.
atom       9.19062120     19.28374000      1.09404240 C
  constrain_relaxation .true.
atom      19.18912120     20.66876000      1.09404240 C
  constrain_relaxation .true.
atom       0.80787880      5.96624000      6.56195760 C
  constrain_relaxation .true.
atom       0.80787880     19.28374000      4.92204240 C
  constrain_relaxation .true.
atom      19.18912120      7.35126000      2.73395760 C
  constrain_relaxation .true.
atom      10.04649280      5.02336100      3.20403600 C
  constrain_relaxation .true.
atom       9.95050720     21.61163900      4.45196400 C
  constrain_relaxation .true.
atom       9.95050720      8.29413900      7.03203600 C
  constrain_relaxation .true.
atom      10.04649280     18.34086100      0.62396400 C
  constrain_relaxation .true.
atom       0.04799280     21.61163900      0.62396400 C
  constrain_relaxation .true.
atom      19.94900720      5.02336100      7.03203600 C
  constrain_relaxation .true.
atom      19.94900720     18.34086100      4.45196400 C
  constrain_relaxation .true.
atom       0.04799280      8.29413900      3.20403600 C
  constrain_relaxation .true.
atom       9.60655880      3.74754450      3.44979360 C
  constrain_relaxation .true.
atom      10.39044120     22.88745550      4.20620640 C
  constrain_relaxation .true.
atom      10.39044120      9.56995550      7.27779360 C
  constrain_relaxation .true.
atom       9.60655880     17.06504450      0.37820640 C
  constrain_relaxation .true.
atom      19.60505880     22.88745550      0.37820640 C
  constrain_relaxation .true.
atom       0.39194120      3.74754450      7.27779360 C
  constrain_relaxation .true.
atom       0.39194120     17.06504450      4.20620640 C
  constrain_relaxation .true.
atom      19.60505880      9.56995550      3.44979360 C
  constrain_relaxation .true.
atom       6.04909250      0.34891850      1.21117920 C
  constrain_relaxation .true.
atom      13.94790750     26.28608150      6.44482080 C
  constrain_relaxation .true.
atom      13.94790750     12.96858150      5.03917920 C
  constrain_relaxation .true.
atom       6.04909250     13.66641850      2.61682080 C
  constrain_relaxation .true.
atom      16.04759250     26.28608150      2.61682080 C
  constrain_relaxation .true.
atom       3.94940750      0.34891850      5.03917920 C
  constrain_relaxation .true.
atom       3.94940750     13.66641850      6.44482080 C
  constrain_relaxation .true.
atom      16.04759250     12.96858150      1.21117920 C
  constrain_relaxation .true.
atom       8.31075320      3.37998150      3.15044400 C
  constrain_relaxation .true.
atom      11.68624680     23.25501850      4.50555600 C
  constrain_relaxation .true.
atom      11.68624680      9.93751850      6.97844400 C
  constrain_relaxation .true.
atom       8.31075320     16.69748150      0.67755600 C
  constrain_relaxation .true.
atom      18.30925320     23.25501850      0.67755600 C
  constrain_relaxation .true.
atom       1.68774680      3.37998150      6.97844400 C
  constrain_relaxation .true.
atom       1.68774680     16.69748150      4.50555600 C
  constrain_relaxation .true.
atom      18.30925320      9.93751850      3.15044400 C
  constrain_relaxation .true.
atom       7.42088670      4.32552400      2.59385280 C
  constrain_relaxation .true.
atom      12.57611330     22.30947600      5.06214720 C
  constrain_relaxation .true.
atom      12.57611330      8.99197600      6.42185280 C
  constrain_relaxation .true.
atom       7.42088670     17.64302400      1.23414720 C
  constrain_relaxation .true.
atom      17.41938670     22.30947600      1.23414720 C
  constrain_relaxation .true.
atom       2.57761330      4.32552400      6.42185280 C
  constrain_relaxation .true.
atom       2.57761330     17.64302400      5.06214720 C
  constrain_relaxation .true.
atom      17.41938670      8.99197600      2.59385280 C
  constrain_relaxation .true.
atom       6.03109520      3.94730700      2.27919120 C
  constrain_relaxation .true.
atom      13.96590480     22.68769300      5.37680880 C
  constrain_relaxation .true.
atom      13.96590480      9.37019300      6.10719120 C
  constrain_relaxation .true.
atom       6.03109520     17.26480700      1.54880880 C
  constrain_relaxation .true.
atom      16.02959520     22.68769300      1.54880880 C
  constrain_relaxation .true.
atom       3.96740480      3.94730700      6.10719120 C
  constrain_relaxation .true.
atom       3.96740480     17.26480700      5.37680880 C
  constrain_relaxation .true.
atom      16.02959520      9.37019300      2.27919120 C
  constrain_relaxation .true.
atom       5.06124070      4.97808150      2.19727200 C
  constrain_relaxation .true.
atom      14.93575930     21.65691850      5.45872800 C
  constrain_relaxation .true.
atom      14.93575930      8.33941850      6.02527200 C
  constrain_relaxation .true.
atom       5.06124070     18.29558150      1.63072800 C
  constrain_relaxation .true.
atom      15.05974070     21.65691850      1.63072800 C
  constrain_relaxation .true.
atom       4.93725930      4.97808150      6.02527200 C
  constrain_relaxation .true.
atom       4.93725930     18.29558150      5.45872800 C
  constrain_relaxation .true.
atom      15.05974070      8.33941850      2.19727200 C
  constrain_relaxation .true.
atom       5.49717530      6.35777450      2.05027680 C
  constrain_relaxation .true.
atom      14.49982470     20.27722550      5.60572320 C
  constrain_relaxation .true.
atom      14.49982470      6.95972550      5.87827680 C
  constrain_relaxation .true.
atom       5.49717530     19.67527450      1.77772320 C
  constrain_relaxation .true.
atom      15.49567530     20.27722550      1.77772320 C
  constrain_relaxation .true.
atom       4.50132470      6.35777450      5.87827680 C
  constrain_relaxation .true.
atom       4.50132470     19.67527450      5.60572320 C
  constrain_relaxation .true.
atom      15.49567530      6.95972550      2.05027680 C
  constrain_relaxation .true.
atom       4.68929650      0.00266350      1.26170880 C
  constrain_relaxation .true.
atom      15.30770350     26.63233650      6.39429120 C
  constrain_relaxation .true.
atom      15.30770350     13.31483650      5.08970880 C
  constrain_relaxation .true.
atom       4.68929650     13.32016350      2.56629120 C
  constrain_relaxation .true.
atom      14.68779650     26.63233650      2.56629120 C
  constrain_relaxation .true.
atom       5.30920350      0.00266350      5.08970880 C
  constrain_relaxation .true.
atom       5.30920350     13.32016350      6.39429120 C
  constrain_relaxation .true.
atom      14.68779650     13.31483650      1.26170880 C
  constrain_relaxation .true.
atom       4.23936400     25.35119300      0.83986320 C
  constrain_relaxation .true.
atom      15.75763600      1.28380700      6.81613680 C
  constrain_relaxation .true.
atom      15.75763600     14.60130700      4.66786320 C
  constrain_relaxation .true.
atom       4.23936400     12.03369300      2.98813680 C
  constrain_relaxation .true.
atom      14.23786400      1.28380700      2.98813680 C
  constrain_relaxation .true.
atom       5.75913600     25.35119300      4.66786320 C
  constrain_relaxation .true.
atom       5.75913600     12.03369300      6.81613680 C
  constrain_relaxation .true.
atom      14.23786400     14.60130700      0.83986320 C
  constrain_relaxation .true.
atom       2.92756080     25.07152550      0.90723600 C
  constrain_relaxation .true.
atom      17.06943920      1.56347450      6.74876400 C
  constrain_relaxation .true.
atom      17.06943920     14.88097450      4.73523600 C
  constrain_relaxation .true.
atom       2.92756080     11.75402550      2.92076400 C
  constrain_relaxation .true.
atom      12.92606080      1.56347450      2.92076400 C
  constrain_relaxation .true.
atom       7.07093920     25.07152550      4.73523600 C
  constrain_relaxation .true.
atom       7.07093920     11.75402550      6.74876400 C
  constrain_relaxation .true.
atom      12.92606080     14.88097450      0.90723600 C
  constrain_relaxation .true.
atom       1.98170270     26.00375050      1.32984720 C
  constrain_relaxation .true.
atom      18.01529730      0.63124950      6.32615280 C