#=======================================================
# FHI-aims file: pahs_geometry_fix/DBZCOR.in
# Created using the Atomic Simulation Environment (ASE)
# Tue May 25 14:20:52 2021
#=======================================================
lattice_vector -0.0000000000000008 -5.2199999999999998 -0.0000000000000003 
lattice_vector -11.0807286372150458 2.6099999999999999 2.7422031048779667 
lattice_vector 0.0000000000000000 0.0000000000000000 -15.7699999999999996 
atom -5.3098851629534511 -3.7844999999999995 -11.8680792721424773 C
atom -5.7708434742615955 1.1745000000000003 -1.1597176229795554 C
atom -5.7708434742615955 -1.1744999999999992 -9.0447176229795563 C
atom -5.3098851629534511 -1.4355000000000007 -3.9830792721424761 C
atom -5.8927314892709619 -0.3653999999999997 -13.3733813888258961 C
atom -5.1879971479440847 -2.2445999999999997 0.3455844937038637 C
atom -5.1879971479440847 -2.9754000000000005 -7.5394155062961339 C
atom -5.8927314892709619 0.3654000000000004 -5.4883813888258972 C
atom -4.6117992588089001 -0.3810600000000001 -13.9553160677497914 C
atom -6.4689293784061439 -2.2289400000000001 0.9275191726277591 C
atom -6.4689293784061439 -2.9910600000000001 -6.9574808273722422 C
atom -4.6117992588089001 0.3810599999999995 -6.0703160677497916 C
atom -4.2128930278691605 -1.3154399999999995 0.8296906204746034 C
atom -6.8678356093458852 -1.2945600000000006 -13.8574875155966364 C
atom -6.8678356093458843 1.2945599999999999 -5.9724875155966366 C
atom -4.2128930278691623 -3.9045599999999996 -7.0553093795253981 C
atom -2.9253123602247726 -1.3363199999999995 0.2744966196877836 C
atom -8.1554162769902732 -1.2736799999999999 -13.3022935148098167 C
atom -8.1554162769902732 1.2736800000000004 -5.4172935148098169 C
atom -2.9253123602247730 -3.8836799999999996 -7.6105033803122160 C
atom -2.5662967523790052 -2.2080600000000001 -0.7242797609102639 C
atom -8.5144318848360410 -0.4019399999999998 -12.3035171342117700 C
atom -8.5144318848360410 0.4019399999999997 -4.4185171342117693 C
atom -2.5662967523790057 -3.0119400000000001 -8.6092797609102636 C
atom -1.2543384817327432 -2.2080600000000001 -1.2318886085278125 C
atom -9.8263901554823025 -0.4019399999999996 -11.7959082865942193 C
atom -9.8263901554823025 0.4019399999999997 -3.9109082865942173 C
atom -1.2543384817327434 -3.0119399999999996 -9.1168886085278142 C
atom -0.8908905824320905 -3.0850199999999997 -2.2617248703678112 C
atom -10.1898380547829568 0.4750199999999998 -10.7660720247542212 C
atom -10.1898380547829568 -0.4750199999999999 -2.8810720247542219 C
atom -0.8908905824320904 -2.1349800000000001 -10.1467248703678106 C
atom -4.0444659525834927 -3.8106000000000004 -12.3972878667195427 C
atom -7.0362626846315539 1.2006000000000006 -0.6305090284024889 C
atom -7.0362626846315548 -1.2005999999999994 -8.5155090284024890 C
atom -4.0444659525834910 -1.4094000000000004 -4.5122878667195412 C
atom -3.6544243045535221 0.5585399999999996 -13.4147814160112464 C
atom -7.4263043326615232 -3.1685400000000001 0.3869845208892150 C
atom -7.4263043326615232 -2.0514600000000001 -7.4980154791107880 C
atom -3.6544243045535221 -0.5585399999999995 -5.5297814160112466 C
atom -2.3734920740914620 0.5219999999999999 -13.9446750949351390 C
atom -8.7072365631235851 -3.1320000000000001 0.9168781998131076 C
atom -8.7072365631235851 -2.0879999999999996 -6.9681218001868936 C
atom -2.3734920740914625 -0.5220000000000004 -6.0596750949351392 C
atom -1.9989634461535932 -0.3653999999999997 -14.9472905598800150 C
atom -9.0817651910614519 -2.2446000000000002 1.9194936647579806 C
atom -9.0817651910614536 -2.9753999999999992 -5.9655063352420168 C
atom -1.9989634461535930 0.3653999999999997 -7.0622905598800143 C
atom -1.8549139738697993 -4.0141799999999996 -2.7264952002434280 C
atom -9.2258146633452469 1.4041800000000000 -10.3013016948786031 C
atom -9.2258146633452469 -1.4041800000000000 -2.4163016948786056 C
atom -1.8549139738697988 -1.2058199999999999 -10.6114952002434269 C
atom -3.1136847470574276 -4.0507199999999992 -2.2005089275292922 C
atom -7.9670438901576173 1.4407200000000004 -10.8272879675927420 C
atom -7.9670438901576182 -1.4407199999999998 -2.9422879675927400 C
atom -3.1136847470574258 -1.1692800000000008 -10.0855089275292915 C
atom -3.5214555609069431 -3.1372199999999997 -1.2117448532697821 C
atom -7.5592730763081031 0.5272199999999999 -11.8160520418522506 C
atom -7.5592730763081040 -0.5272199999999997 -3.9310520418522517 C
atom -3.5214555609069431 -2.0827800000000001 -9.0967448532697794 C
atom -6.2716924086637169 0.5167799999999999 -12.3728230426390713 C
atom -4.8090362285513297 -3.1267799999999997 -0.6549738524829609 C
atom -4.8090362285513297 -2.0932199999999996 -8.5399738524829623 C
atom -6.2716924086637169 -0.5167800000000004 -4.4878230426390706 C
atom -9.3001310824141701 1.5314375268603118 0.6076625752275805 H
atom -7.6229717689896992 0.6478166008896576 -0.9577749203002579 H
atom -5.5865346608422968 0.6009433771903414 -1.7873823915679727 H
atom -3.6593533279296251 0.5601060830293946 -2.4972460818116815 H
atom -9.9015953195696564 -2.2972354019666303 2.2058641849761744 H
atom -0.6620981479602258 -1.6604949982928083 -0.9058150647398830 H
atom -0.0909195919703584 -3.0535628332850178 -2.6022492616850026 H
atom -1.6671547630077348 -4.5827944718391285 -3.3576243955367229 H
atom -10.4186304892548147 -0.9495050017071940 -12.1219818303821594 H
atom -9.4135738742073070 1.9727944718391268 -9.6701724995853056 H
atom -1.1791333176453895 -0.3127645980333718 -15.2336610800982051 H
atom -10.9898090452446855 0.4435628332850227 -10.4255476334370307 H
atom -5.4941939763727392 -3.2109433771903380 -11.2404145035540672 H
atom -3.4577568682253474 -3.2578166008896536 -12.0700219748217847 H
atom -7.4213753092854171 -3.1701060830293923 -10.5305508133103647 H
atom -1.7805975548008792 -4.1414375268603116 -13.6354594703496108 H
atom -9.9015953195696582 2.2972354019666277 -5.6791358150238311 H
atom -3.4577568682253412 -1.9621833991103452 -4.1850219748217823 H
atom -1.7805975548008792 -1.0785624731396881 -5.7504594703496021 H
atom -10.4186304892548165 0.9495050017071938 -4.2369818303821418 H
atom -5.4941939763727436 -2.0090566228096605 -3.3554145035540586 H
atom -10.9898090452446855 -0.4435628332850220 -2.5405476334370318 H
atom -7.4213753092854233 -2.0498939169706065 -2.6455508133103502 H
atom -9.4135738742073070 -1.9727944718391281 -1.7851724995853095 H
atom -5.5865346608423021 -0.6009433771903406 -9.6723823915679787 H
atom -7.6229717689897143 -0.6478166008896593 -8.8427749203002470 H
atom -9.3001310824141683 -1.5314375268603078 -7.2773374247724236 H
atom -3.6593533279296224 -0.5601060830293974 -10.3822460818116973 H
atom -0.6620981479602258 -3.5595050017071976 -8.7908150647398955 H
atom -1.6671547630077335 -0.6372055281608692 -11.2426243955367191 H
atom -1.1791333176453895 -4.9072354019666360 -7.3486610800981991 H
atom -0.0909195919703584 -2.1664371667149744 -10.4872492616850046 H
