#=======================================================
# FHI-aims file: pahs_geometry_fix/QUPHEN01.in
# Created using the Atomic Simulation Environment (ASE)
# Tue May 25 14:20:53 2021
#=======================================================
lattice_vector -3.2952133187817401 9.1323049310643665 0.7811375229630855 
lattice_vector -9.7086262761638480 0.0000000000000000 0.7811375229630843 
lattice_vector 0.0000000000000000 0.0000000000000000 17.6999999999999993 
atom -11.5970503615257350 5.6748142841633973 1.9316357243557509 H
atom -1.4067892334198537 3.4574906469009692 17.3306393215704198 H
atom -2.2894420752378029 5.9332585137125182 3.5532364527704510 H
atom -10.7143975197077843 3.1990464173518469 15.7090385931557162 H
atom -8.6164937256331537 8.4784318980001583 4.6273711944629978 H
atom -4.3873458693124325 0.6538730330642086 14.6349038514631697 H
atom -8.2141753517977421 8.2190744379579304 2.2262467155806203 H
atom -4.7896642431478469 0.9132304931064366 17.0360283303455446 H
atom -2.9136808130789245 6.7807364113152913 5.2443473256546147 H
atom -10.0901587818666645 2.3515685197490743 14.0179277202715546 H
atom -3.3153401442505781 7.0382674103713079 7.6470855770324002 H
atom -9.6884994506950104 2.0940375206930595 11.6151894688937691 H
atom -11.2152452068639885 7.7889428757047980 9.9004129469643569 H
atom -1.7885943880815984 1.3433620553595684 9.3618620989618098 H
atom -9.0029052355186447 8.2793476505029524 8.9695520875462602 H
atom -4.0009343594269415 0.8529572805614118 10.2927229583799082 H
atom -8.6012459043469889 8.0218166514469385 6.5668138361684756 H
atom -4.4025936905985992 1.1104882796174269 12.6954612097576938 H
atom -7.5547064295212278 7.2282193529374448 18.2560599173749694 H
atom -5.4491331654243620 1.9040855781269204 1.0062151285511962 H
atom -7.1517467143900779 6.9697751233883247 15.8531654384925922 H
atom -5.8520928805555101 2.1625298076760422 3.4091096074335736 H
atom -11.2445686521161434 6.0163624885852052 15.2701445290893787 H
atom -1.7592709428294442 3.1159424424791613 3.9921305168367898 H
atom -11.6475283672472916 6.2748067181343270 17.6730390079717523 H
atom -1.3563112276982952 2.8574982129300404 1.5892360379544124 H
atom -7.0596863069659124 7.3469393170412829 13.9413096864013379 H
atom -5.9441532879796757 1.7853656140230838 5.3209653595248314 H
atom -6.6573679331305016 7.0875818569990550 11.5384152075189590 H
atom -6.3464716618150865 2.0447230740653115 7.7238598384072086 H
atom -8.2905141855543931 5.9095145208917517 10.1429996219248952 H
atom -4.7133254093911958 3.2227904101726148 9.1192754240012714 H
atom -10.3259788118136964 4.9908046448266763 11.1504785152132104 H
atom -2.6778607831318921 4.1415002862376902 8.1117965307129598 H
atom -10.7289385269448463 5.2492488743757963 13.5533729940955876 H
atom -2.2749010680007431 3.8830560566885688 5.7089020518305817 H
atom -5.2972069544458833 9.0437215732330412 1.3991788000511096 H
atom -7.7066326404997048 0.0885833578313244 17.8630962458750560 H
atom -2.4212701050770384 0.1908651730592452 3.0163553960438829 H
atom -10.5825694898685487 8.9414397580051208 16.2459196498822855 H
atom -5.2357841705704073 5.1469670591478769 4.3706749659331479 H
atom -7.7680554243751807 3.9853378719164896 14.8916000799930206 H
atom -4.8165077011575121 4.8675185282573077 1.9723608469772886 H
atom -8.1873318937880768 4.2647864028070597 17.2899141989488783 H
atom -2.2175046787595538 0.4091272609116836 4.9168134809244757 H
atom -10.7863349161860338 8.7231776701526833 14.3454615650016937 H
atom -2.6361398068767126 0.6894890222953597 7.3151275998803351 H
atom -10.3676997880688759 8.4428159087690062 11.9471474460458325 H
atom -6.4216388913668077 7.8683939286050588 9.4908978357583713 H
atom -6.5822007035787813 1.2639110024593083 9.7713772101677971 H
atom -6.4919891449985103 5.6337189119736077 8.4870602022128718 H
atom -6.5118504499470768 3.4985860190907587 10.7752148437132966 H
atom -6.0733540168813533 5.3533571505899324 6.0905160832570120 H
atom -6.9304855780642347 3.7789477804744349 13.1717589626691556 H
atom -5.2703975659925755 4.6940047345670832 17.7237557502626224 H
atom -7.7334420289530117 4.4383001964972824 1.5385192956635434 H
atom -4.8517624378754194 4.4136429731834088 15.3254416313067647 H
atom -8.1520771570701687 4.7186619578809585 3.9368334146194033 H
atom -3.7908775415002016 8.5122214262450964 15.0309405756054542 H
atom -9.2129620534453860 0.6200835048192705 4.2313344703207125 H
atom -4.2095126696173590 8.7925831876287717 17.4292546945613118 H
atom -8.7943269253282299 0.3397217434355944 1.8330203513648535 H
atom -3.9024834806240678 4.1478928996894355 13.6321985411200846 H
atom -9.1013561143215203 4.9844120313749309 5.6300765048060830 H
atom -3.4832070112111708 3.8684443687988654 11.2338844221642251 H
atom -9.5206325837344163 5.2638605622655010 8.0283906237619433 H
atom -3.3754942248877273 5.8300634679914900 9.7713772101677971 H
atom -9.6283453700578612 3.3022414630728747 9.4908978357583713 H
atom -3.6870756093451957 8.0738707895540056 10.7073403446318203 H
atom -9.3167639856003923 1.0584341415103602 8.5549347012943482 H
atom -4.1063520787580901 8.3533193204445748 13.1038844635876792 H
atom -8.8974875161874962 0.7789856106197903 6.1583905823384884 H
atom -9.8757217269613822 6.9286797511985352 1.9064692148671480 C
atom -3.1281178679842059 2.2036251798658317 17.3558058310590191 C
atom -10.9575745603439216 6.2757199486274331 2.5106282438413774 C
atom -2.0462650346016682 2.8565849824369334 16.7516468020847888 C
atom -11.1876540143343668 6.4236632885106744 3.8826993746313079 C
atom -1.8161855806112197 2.7086416425536908 15.3795756712948606 C
atom -10.3365219762380125 7.2236532004719143 4.6541514764470078 C
atom -2.6673176187075756 1.9086517305924522 14.6081235694791616 C
atom -9.2546691428554730 7.8766130030430164 4.0499924474727784 C
atom -3.7491704520901172 1.2556919280213505 15.2122825984533900 C
atom -9.0245896888650261 7.7286696631597742 2.6779213166828484 C
atom -3.9792499060805619 1.4036352679045931 16.5843537292433219 C
atom -10.5828473790381317 7.3816420757793280 6.1236773372920492 C
atom -2.4209922159074582 1.7506628552850392 13.1385977086341192 C
atom -11.8470467059120477 7.1021935448887561 6.6574124648179884 C
atom -1.1567928890335395 2.0301113861756086 12.6048625811081809 C
atom -12.0758257759429988 7.2492236542788939 8.0293273681033259 C
atom -0.9280138190025899 1.8830812767854723 11.2329476778228408 C
atom -11.0430062870190238 7.6775287555458132 8.8713595988719085 C
atom -1.9608333079265656 1.4547761755185535 10.3909154470542582 C
atom -9.7794660028088636 7.9588037474225946 8.3377806988505636 C
atom -3.2243735921367236 1.1735011836417708 10.9244943470756066 C
atom -9.5493865488184184 7.8108604075393524 6.9657095680606327 C
atom -3.4544530461271696 1.3214445235250138 12.2965654778655349 C
atom -9.6300376654569995 6.7697776453980145 18.1369433540221081 C
atom -3.3738019294885877 2.3625272856663515 1.1253316919040632 C
atom -8.3452487036944749 6.9679486624021116 17.6164291263124611 C
atom -4.6585908912511131 2.1643562686622548 1.6458459196137067 C
atom -8.1151692497040280 6.8200053225188695 16.2425879955225305 C
atom -4.8886703452415592 2.3122996085454974 3.0196870504036362 C
atom -9.1692374161803691 6.4748041961246354 15.3910310924422458 C
atom -3.8346021787652180 2.6575007349397306 3.8712439534839231 C
atom -10.4540263779428955 6.2766331791205392 15.9097753201518906 C
atom -2.5498132170026921 2.8556717519438273 3.3524997257742792 C
atom -10.6841058319333424 6.4245765190037822 17.2836164509418211 C
atom -2.3197337630122470 2.7077284120605847 1.9786585949843492 C
atom -8.9229120133802518 6.3168153208172209 13.9197352315972047 C
atom -4.0809275815653372 2.8154896102471443 5.3425398143289637 C
atom -7.7599751389405771 6.8419228543534221 13.3425381822188225 C
atom -5.2438644560050109 2.2903820767109435 5.9197368637073442 C
atom -7.5298956849501302 6.6939795144701808 11.9704670514288942 C
atom -5.4739439099954570 2.4383254165941861 7.2918079944972751 C
atom -8.4627531053993579 6.0209286410507357 11.1720529700173437 C
atom -4.5410864895462293 3.1113762900136290 8.0902220759088230 C
atom -9.6263313211347707 5.4949078770214292 11.7492500193957241 C
atom -3.3775082738108173 3.6373970540429372 7.5130250265304444 C
atom -9.8564107751252159 5.6428512169046723 13.1213211501856541 C
atom -3.1474288198203713 3.4894537141596937 6.1409538957405143 C
atom -5.0266278260854538 6.9350723646502797 1.5149115909085686 C
atom -7.9772117688601343 2.1972325664140868 17.7473634550176023 C
atom -5.2840411361794200 8.2081156720406536 2.0358945011319904 C
atom -7.7197984587661681 0.9241892590237137 17.2263805447941749 C
atom -5.5245590645818607 8.3688442388273856 3.4059879069678476 C
atom -7.4792805303637282 0.7634606922369810 15.8562871389583222 C
atom -5.5063632989308369 7.2556162677306393 4.2549421750756888 C
atom -7.4974762960147512 1.8766886633337272 15.0073328708504796 C
atom -5.2489499888368716 5.9825729603402653 3.7339592648522668 C
atom -7.7548896061087174 3.1497319707240998 15.5283157810739016 C
atom -5.0097324443939257 5.8227576240466394 2.3640220865210031 C
atom -7.9941071505516623 3.3095473070177266 16.8982529594051663 C
atom -5.7624858348472108 7.4273036004346498 5.7224903109666565 C
atom -7.2413537600983773 1.7050013306297174 13.5397847349595128 C
atom -5.7221915409628439 8.7039998297974464 6.2958366404920003 C
atom -7.2816480539827442 0.4283051012669188 12.9664384054341681 C
atom -5.9614090854057871 8.8638151660910740 7.6657738188232631 C
atom -7.0424305095398001 0.2684897649732924 11.5965012271029035 C
atom -6.2422213076925939 7.7478475035150076 8.4625208951337765 C
atom -6.7616182872529942 1.3844574275493577 10.7997541507923920 C
atom -6.2825156015769617 6.4711512741522101 7.8891745656084327 C
atom -6.7213239933686255 2.6611536569121563 11.3731004803177367 C
atom -6.0432980571340176 6.3113359378585843 6.5192373872771681 C
atom -6.9605415378115705 2.8209689932057831 12.7430376586489995 C
atom -4.7705052901690816 6.7633850319462701 17.7473634550176023 C
atom -8.2333343047765073 2.3689198991180969 1.5149115909085682 C
atom -4.9540052239570977 5.5122592563904522 17.1462740083734424 C
atom -8.0498343709884903 3.6200456746739147 2.1160010375527256 C
atom -4.7134872955546578 5.3515306896037185 15.7761806025375861 C
atom -8.2903522993909302 3.7807742414606476 3.4860944433885814 C
atom -4.2907698173236968 6.4428411288659095 15.0073328708504796 C
atom -8.7130697776218913 2.6894638021984552 4.2549421750756879 C
atom -4.1072698835356798 7.6939669044217291 15.6084223174946377 C
atom -8.8965697114099083 1.4383380266426378 3.6538527284315303 C
atom -4.3464874279786256 7.8537822407153550 16.9783594958259023 C
atom -8.6573521669669642 1.2785226903490114 2.2839155501002675 C
atom -4.0346472814073229 6.2711537961618991 13.5397847349595128 C
atom -8.9691923135382652 2.8611511349024656 5.7224903109666556 C
atom -3.8567916026738467 4.9898914143335702 13.0052684699106109 C
atom -9.1470479922717427 4.1424135167307963 6.2570065760155584 C
atom -3.6162736742714063 4.8291628475468373 11.6351750640747529 C
atom -9.3875659206741808 4.3031420835175291 7.6270999818514147 C
atom -3.5549118085619402 5.9506098930815412 10.7997541507923920 C
atom -9.4489277863836474 3.1816950379828253 8.4625208951337747 C
atom -3.7327674872954173 7.2318722749098709 11.3342704158412957 C
atom -9.2710721076501699 1.9004326561544944 7.9280046300848737 C
atom -3.9732854156978559 7.3926008416966047 12.7043638216771519 C
atom -9.0305541792477317 1.7397040893677616 6.5579112242490165 C
