#=======================================================
# FHI-aims file: pahs_geometry_fix/TPHBEN01.in
# Created using the Atomic Simulation Environment (ASE)
# Tue May 25 14:20:53 2021
#=======================================================
lattice_vector -7.6100000000000003 0.0000000000000000 -0.0000000000000005 
lattice_vector 0.0000000000000000 0.0000000000000000 -11.2579999999999991 
lattice_vector -0.0000000000000032 -19.7650000000000006 -0.0000000000000012 
atom -6.1055030000000032 -14.3197424999999985 -10.7795349999999992 H
atom -1.5044970000000000 -5.4452574999999994 -5.1505349999999996 H
atom -2.3005030000000022 -15.3277575000000006 -10.7795350000000010 H
atom -5.3094970000000012 -4.4372424999999982 -5.1505350000000005 H
atom -4.8087590000000011 -10.6948415000000008 -1.8631989999999994 H
atom -2.8012410000000014 -9.0701584999999998 -7.4921990000000003 H
atom -1.0037590000000032 -18.9526584999999983 -1.8631990000000020 H
atom -6.6062409999999998 -0.8123415000000005 -7.4921989999999994 H
atom -5.6785820000000022 -10.6138049999999993 -4.0787734000000002 H
atom -1.9314180000000010 -9.1511949999999995 -9.7077734000000007 H
atom -1.8735820000000021 -19.0336950000000016 -4.0787734000000002 H
atom -5.7364180000000005 -0.7313049999999984 -9.7077734000000007 H
atom -6.5674300000000017 -12.6140229999999995 -5.1145094000000011 H
atom -1.0425700000000013 -7.1509770000000001 -10.7435093999999989 H
atom -2.7624300000000037 -17.0334770000000013 -5.1145094000000011 H
atom -4.8475700000000002 -2.7315229999999975 -10.7435094000000007 H
atom -6.5636250000000036 -14.7012070000000001 -3.8941422000000010 H
atom -1.0463749999999998 -5.0637929999999995 -9.5231421999999988 H
atom -2.7586250000000017 -14.9462930000000007 -3.8941422000000006 H
atom -4.8513750000000018 -4.8187069999999981 -9.5231421999999988 H
atom -6.1785590000000035 -18.3379669999999990 -3.8873874000000019 H
atom -1.4314409999999997 -1.4270330000000009 -9.5163873999999993 H
atom -2.3735590000000015 -11.3095330000000018 -3.8873874000000015 H
atom -5.2364410000000019 -8.4554669999999970 -9.5163873999999993 H
atom -5.6679279999999999 -0.6146914999999982 -5.0570936000000009 H
atom -1.9420720000000022 -19.1503085000000013 -10.6860936000000013 H
atom -1.8629280000000010 -9.2678084999999975 -5.0570936000000009 H
atom -5.7470720000000020 -10.4971915000000013 -10.6860935999999995 H
atom -4.4290200000000004 -2.3658704999999984 -3.9774513999999992 H
atom -3.1809800000000030 -17.3991295000000008 -9.6064514000000010 H
atom -0.6240200000000001 -7.5166294999999996 -3.9774513999999996 H
atom -6.9859800000000014 -12.2483704999999983 -9.6064513999999992 H
atom -3.6794350000000011 -2.0852074999999988 -1.7067127999999998 H
atom -3.9305650000000023 -17.6797925000000014 -7.3357128000000005 H
atom -7.4844350000000013 -7.7972924999999993 -1.7067128000000003 H
atom -0.1255650000000016 -11.9677074999999995 -7.3357127999999996 H
atom -4.1702800000000009 -0.0474359999999970 -0.4987294000000003 H
atom -3.4397200000000021 -19.7175640000000030 -6.1277294000000007 H
atom -0.3652800000000010 -9.8350640000000009 -0.4987294000000007 H
atom -7.2447200000000018 -9.9299359999999997 -6.1277294000000007 H
atom -5.2927550000000032 -16.3812320000000007 -3.0723082000000015 H
atom -2.3172449999999998 -3.3837679999999981 -8.7013081999999997 H
atom -1.4877550000000015 -13.2662680000000002 -3.0723082000000024 H
atom -6.1222450000000013 -6.4987319999999995 -8.7013081999999997 H
atom -5.7067390000000033 -18.4941105000000015 -10.7412578000000014 H
atom -1.9032610000000003 -1.2708894999999982 -5.1122577999999992 H
atom -1.9017390000000012 -11.1533895000000012 -10.7412577999999979 H
atom -5.7082610000000020 -8.6116104999999994 -5.1122578000000001 H
atom -7.3763730000000036 -18.1719410000000003 -9.1471250000000008 H
atom -0.2336269999999990 -1.5930590000000002 -3.5181249999999999 H
atom -3.5713730000000017 -11.4755590000000005 -9.1471249999999991 H
atom -4.0386270000000017 -8.2894410000000001 -3.5181250000000004 H
atom -0.2549350000000019 -18.1818235000000001 -6.7829450000000007 H
atom -7.3550650000000006 -1.5831764999999991 -1.1539449999999996 H
atom -4.0599350000000012 -11.4656765000000007 -6.7829450000000007 H
atom -3.5500650000000009 -8.2993235000000016 -1.1539450000000022 H
atom -6.9532570000000025 -16.4583155000000012 -5.3531790000000017 H
atom -0.6567430000000001 -3.3066844999999980 -10.9821790000000004 H
atom -3.1482570000000019 -13.1891844999999996 -5.3531790000000008 H
atom -4.4617430000000011 -6.5758155000000000 -10.9821790000000004 H
atom -5.5689980000000032 -14.7466664999999999 -6.2785866000000006 H
atom -2.0410020000000002 -5.0183335000000007 -0.6495866000000013 H
atom -1.7639980000000017 -14.9008335000000010 -6.2785866000000006 H
atom -5.8460020000000013 -4.8641664999999996 -0.6495866000000016 H
atom -5.1116370000000027 -14.6735359999999986 -8.6551504000000001 H
atom -2.4983630000000003 -5.0914640000000011 -3.0261504000000010 H
atom -1.3066370000000014 -14.9739640000000023 -8.6551504000000019 H
atom -6.3033630000000018 -4.7910359999999965 -3.0261504000000010 H
atom -4.8095200000000018 -12.7602839999999986 -0.6169384000000006 H
atom -2.8004800000000012 -7.0047160000000011 -6.2459383999999991 H
atom -1.0045200000000027 -16.8872160000000022 -0.6169384000000006 H
atom -6.6054800000000009 -2.8777839999999970 -6.2459383999999991 H
atom -5.9418880000000032 -16.4069265000000009 -10.5678846000000011 C
atom -1.6681119999999994 -3.3580734999999988 -4.9388845999999997 C
atom -2.1368880000000026 -13.2405735000000000 -10.5678845999999993 C
atom -5.4731120000000013 -6.5244264999999988 -4.9388845999999997 C
atom -6.7515920000000031 -16.4543625000000020 -6.3663990000000013 C
atom -0.8584079999999998 -3.3106374999999977 -0.7373990000000002 C
atom -2.9465920000000012 -13.1931375000000006 -6.3663990000000004 C
atom -4.6634080000000013 -6.5718625000000008 -0.7373989999999995 C
atom -5.9647180000000022 -15.4680889999999991 -6.9045314000000007 C
atom -1.6452820000000004 -4.2969110000000006 -1.2755313999999998 C
atom -2.1597180000000029 -14.1794110000000018 -6.9045313999999998 C
atom -5.4502820000000005 -5.5855889999999970 -1.2755314000000002 C
atom -5.6991290000000028 -15.4364649999999983 -8.2667494000000001 C
atom -1.9108710000000007 -4.3285349999999996 -2.6377494000000010 C
atom -1.8941290000000024 -14.2110350000000007 -8.2667493999999984 C
atom -5.7158710000000008 -5.5539649999999989 -2.6377494000000001 C
atom -5.6892360000000028 -13.9086305000000010 -2.1559070000000009 C
atom -1.9207640000000006 -5.8563694999999978 -7.7849069999999996 C
atom -1.8842360000000029 -15.7388694999999998 -2.1559070000000009 C
atom -5.7257640000000007 -4.0261304999999998 -7.7849069999999996 C
atom -5.1869760000000023 -12.7444720000000018 -1.5806232000000020 C
atom -2.4230240000000007 -7.0205279999999970 -7.2096232000000002 C
atom -1.3819760000000016 -16.9030279999999991 -1.5806232000000020 C
atom -6.2280240000000013 -2.8619720000000011 -7.2096232000000011 C
atom -5.1869760000000023 -11.5585719999999998 -2.2898772000000012 C
atom -2.4230240000000007 -8.2064280000000007 -7.9188772000000007 C
atom -1.3819760000000019 -18.0889279999999992 -2.2898772000000012 C
atom -6.2280240000000004 -1.6760719999999998 -7.9188771999999998 C
atom -5.6839090000000017 -11.5091595000000009 -3.5631570000000008 C
atom -1.9260910000000013 -8.2558404999999997 -9.1921569999999999 C
atom -1.8789090000000030 -18.1383404999999982 -3.5631570000000012 C
atom -5.7310910000000002 -1.6266595000000008 -9.1921569999999999 C
atom -6.1869300000000020 -12.6515764999999973 -4.1508246000000009 C
atom -1.4230700000000007 -7.1134235000000006 -9.7798245999999995 C
atom -2.3819300000000014 -16.9959235000000000 -4.1508246000000009 C
atom -5.2280700000000007 -2.7690765000000002 -9.7798245999999995 C
atom -6.1869300000000029 -13.8473589999999991 -3.4483254000000012 C
atom -1.4230700000000005 -5.9176410000000006 -9.0773253999999994 C
atom -2.3819300000000014 -15.8001410000000000 -3.4483254000000008 C
atom -5.2280700000000007 -3.9648590000000001 -9.0773253999999994 C
atom -5.1991520000000033 -18.8874339999999989 -2.0849816000000030 C
atom -2.4108479999999997 -0.8775660000000000 -7.7139816000000003 C
atom -1.3941520000000012 -10.7600660000000001 -2.0849816000000008 C
atom -6.2158480000000020 -9.0049340000000004 -7.7139816000000012 C
atom -5.9350390000000033 -15.2071909999999999 -0.0213902000000002 C
atom -1.6749609999999997 -4.5578090000000007 -5.6503901999999995 C
atom -2.1300390000000018 -14.4403090000000009 -0.0213902000000012 C
atom -5.4799610000000012 -5.3246909999999996 -5.6503902000000004 C
atom -5.6359660000000025 -19.0771780000000000 -3.4032934000000017 C
atom -1.9740339999999998 -0.6878219999999988 -9.0322934000000004 C
atom -1.8309660000000012 -10.5703219999999991 -3.4032934000000004 C
atom -5.7790340000000020 -9.1946779999999997 -9.0322934000000004 C
atom -5.3490690000000001 -0.4862189999999970 -4.0810250000000003 C
atom -2.2609310000000025 -19.2787810000000022 -9.7100250000000017 C
atom -1.5440690000000006 -9.3962810000000019 -4.0810250000000012 C
atom -6.0659310000000017 -10.3687189999999987 -9.7100249999999999 C
atom -4.6390559999999992 -1.4922575000000002 -3.4652123999999995 C
atom -2.9709440000000029 -18.2727424999999997 -9.0942124000000000 C
atom -0.8340560000000008 -8.3902424999999994 -3.4652124000000000 C
atom -6.7759440000000017 -11.3747575000000012 -9.0942124000000000 C
atom -4.2136569999999995 -1.3242549999999969 -2.1660392000000002 C
atom -3.3963430000000034 -18.4407450000000033 -7.7950392000000006 C
atom -0.4086570000000003 -8.5582450000000012 -2.1660392000000006 C
atom -7.2013430000000023 -11.2067549999999994 -7.7950392000000006 C
atom -4.4921829999999998 -0.1541670000000006 -1.4759238000000001 C
atom -3.1178170000000018 -19.6108329999999995 -7.1049238000000008 C
atom -0.6871830000000011 -9.7283329999999992 -1.4759238000000006 C
atom -6.9228170000000020 -10.0366669999999978 -7.1049238000000008 C
atom -5.7006510000000032 -15.1933554999999991 -1.3993694000000008 C
atom -1.9093490000000000 -4.5716444999999988 -7.0283694000000008 C
atom -1.8956510000000013 -14.4541445000000017 -1.3993694000000019 C
atom -5.7143490000000012 -5.3108555000000015 -7.0283694000000008 C
atom -5.4708290000000028 -16.3950674999999997 -2.0534592000000012 C
atom -2.1391709999999997 -3.3699325000000000 -7.6824591999999994 C
atom -1.6658290000000013 -13.2524324999999994 -2.0534592000000007 C
atom -5.9441710000000008 -6.5125675000000003 -7.6824592000000003 C
atom -5.4738730000000029 -17.6125915000000006 -1.3712244000000002 C
atom -2.1361270000000001 -2.1524084999999999 -7.0002244000000013 C
atom -1.6688730000000016 -12.0349085000000002 -1.3712244000000009 C
atom -5.9411270000000007 -7.7300915000000003 -7.0002244000000013 C
atom -5.7075000000000031 -17.5987560000000016 -0.0000000000000014 C
atom -1.9024999999999996 -2.1662439999999985 -5.6289999999999996 C
atom -1.9025000000000012 -12.0487439999999992 -11.2579999999999991 C
atom -5.7075000000000014 -7.7162559999999996 -5.6290000000000004 C
atom -6.2188920000000030 -16.4247149999999991 -9.1088478000000013 C
atom -1.3911080000000002 -3.3402850000000011 -3.4798478000000004 C
atom -2.4138920000000028 -13.2227850000000018 -9.1088477999999995 C
atom -5.1961080000000006 -6.5422149999999970 -3.4798478000000008 C
atom -6.9943510000000035 -17.4208709999999982 -8.5436962000000012 C
atom -0.6156489999999993 -2.3441290000000010 -2.9146961999999998 C
atom -3.1893510000000012 -12.2266290000000009 -8.5436961999999994 C
atom -4.4206490000000009 -7.5383709999999997 -2.9146962000000021 C
atom -7.2683110000000024 -17.4347065000000008 -7.1871072000000016 C
atom -0.3416890000000000 -2.3302935000000002 -1.5581071999999998 C
atom -3.4633110000000014 -12.2127934999999983 -7.1871072000000016 C
atom -4.1466890000000012 -7.5522065000000005 -1.5581072000000002 C
