#=======================================================
# FHI-aims file: pahs_geometry_fix/BIPHEN.in
# Created using the Atomic Simulation Environment (ASE)
# Tue May 25 14:20:52 2021
#=======================================================
lattice_vector -0.0000000000000009 -5.6399999999999997 -0.0000000000000003 
lattice_vector -8.0839631525770095 0.0000000000000000 0.7641595041463367 
lattice_vector 0.0000000000000000 0.0000000000000000 -9.4700000000000006 
atom -0.7356406468845083 -3.9028799999999997 -7.9799614851226837 H
atom -7.3483225056925026 -1.7371200000000002 -0.7258790107309804 H
atom -3.3063409294039974 -1.0828799999999996 -1.1079587628041485 H
atom -4.7776222231730134 -4.5571199999999994 -7.5978817330495154 H
atom -7.8171923685419689 -3.8690399999999996 -5.0851077594904934 H
atom -0.2667707840350418 -1.7709599999999996 -3.6207327363631712 H
atom -4.3087523603235454 -1.0490400000000009 -3.2386529842900029 H
atom -3.7752107922534641 -4.5909599999999999 -5.4671875115636617 H
atom -6.2893233327049138 -0.0282000000000000 -4.4435239057741498 H
atom -1.7946398198720968 -5.6117999999999997 -4.2623165900795135 H
atom -5.8366213961606013 -2.8481999999999998 -3.8802368380063452 H
atom -2.2473417564164091 -2.7917999999999998 -4.8256036578473189 H
atom -5.7881176172451392 -1.7371200000000002 -6.1102717950312240 H
atom -2.2958455353318716 -3.9028799999999997 -2.5955687008224411 H
atom -6.3378271116203768 -4.5571199999999994 -2.2134889487492728 H
atom -1.7461360409566340 -1.0828799999999996 -6.4923515471043922 H
atom -6.4914224115193386 -1.7878799999999997 -8.3165899181704912 H
atom -1.5925407410576711 -3.8521200000000002 -0.3892505776831735 H
atom -5.6345223173461765 -4.6078799999999998 -0.0071708256100040 H
atom -2.4494408352308343 -1.0321200000000001 -8.6986696702436603 H
atom -7.7953656680300103 -0.0039480000000002 -8.0096129901516875 C
atom -0.2885974845469998 -5.6360519999999994 -0.6962275057019764 C
atom -4.3305790608355048 -2.8239479999999992 -0.3141477536288078 C
atom -3.7533840917415064 -2.8160519999999996 -8.3916927422248566 C
atom -0.0339526452408240 -4.6597679999999997 -7.8663605300825861 C
atom -8.0500105073361858 -0.9802320000000003 -0.8394799657710784 C
atom -4.0080289310476820 -1.8397680000000001 -1.2215597178442459 C
atom -4.0759342215293293 -3.8002319999999994 -7.4842807780094169 C
atom -7.5601223402900199 -4.6682280000000000 -5.7912480317223469 C
atom -0.5238408122869901 -0.9717720000000000 -2.9145924641313172 C
atom -4.5658223885754952 -1.8482279999999998 -2.5325127120581490 C
atom -3.5181407640015152 -3.7917719999999999 -6.1733277837955152 C
atom -6.6943298866490224 -0.0225600000000006 -5.4213705146164184 C
atom -1.3896332659279893 -5.6174399999999993 -3.2844699812372444 C
atom -5.4316148422164927 -2.8425599999999998 -2.9023902291640771 C
atom -2.6523483103605168 -2.7974399999999999 -5.8034502666895875 C
atom -6.3839057015900655 -1.0123800000000005 -6.3361592395756388 C
atom -1.7000574509869462 -4.6276199999999994 -2.3696812562780258 C
atom -5.7420390272754496 -3.8323799999999997 -1.9876015042048574 C
atom -2.3419241253015595 -1.8076200000000000 -6.7182389916488070 C
atom -6.9392739701721053 -0.9982800000000002 -7.6274544816407852 C
atom -1.1446891824049048 -4.6417199999999994 -1.0783860142128787 C
atom -5.1866707586934098 -3.8182800000000001 -0.6963062621397104 C
atom -2.8972923938836010 -1.8217199999999996 -8.0095342337139535 C
