#=======================================================
# FHI-aims file: pahs_geometry_fix/NAPANT01.in
# Created using the Atomic Simulation Environment (ASE)
# Tue May 25 14:20:53 2021
#=======================================================
lattice_vector 0.0000000000000013 7.8029999999999999 0.0000000000000005 
lattice_vector -0.0000000000000000 -0.0000000000000000 10.8710000000000004 
lattice_vector 11.8104228429019251 -0.0000000000000000 -0.2907030647592534 
atom 7.9956562646446043 3.6205919999999998 2.8470740251579860 H
atom 3.8147665782573230 7.5220919999999989 7.7332229100827616 H
atom 9.3302340458925208 3.6986219999999994 4.8036175788401900 H
atom 2.4801887970094052 7.6001219999999989 5.7766793564005576 H
atom 11.3852476205574558 2.6296109999999997 4.8726162455720798 H
atom 0.4251752223444702 6.5311110000000001 5.7076806896686678 H
atom 1.2991465127192119 1.3499189999999996 4.1316156628764826 H
atom 10.5112763301827137 5.2514189999999994 6.4486812723642650 H
atom 2.2676011858371692 0.2418930000000000 2.1618690115662229 H
atom 9.5428216570647546 4.1433930000000005 8.4184279236745247 H
atom 0.9566442502750560 0.2418930000000000 0.2264860517545005 H
atom 10.8537785926268686 4.1433930000000005 10.3538108834862488 H
atom 11.7868019972161218 0.5149980000000001 9.0480673413702650 H
atom 0.0236208456858046 4.4164979999999998 1.5322295938704817 H
atom 10.4994659073398111 0.5618160000000000 7.1121029754290248 H
atom 1.3109569355621145 4.4633159999999998 3.4681939598117233 H
atom 8.4090210641461702 1.2952979999999998 7.0222344178914122 H
atom 3.4014017787557549 5.1967979999999994 3.5580625173493354 H
atom 7.7948790763152731 3.2304419999999996 6.7764469772588933 H
atom 4.0155437665866556 7.1319419999999996 3.8038499579818543 H
atom 6.6374576377108836 3.8624849999999995 4.8264138776053001 H
atom 5.1729652051910442 7.7639849999999990 5.7538830576354485 H
atom 4.3108043376592029 3.6440009999999998 4.7641013813628730 H
atom 7.4996185052427222 7.5455009999999989 5.8161955538778756 H
atom 2.1613073802510523 3.1368059999999995 5.9041093391490582 H
atom 9.6491154626508742 7.0383059999999995 4.6761875960916912 H
atom 1.0156963644895658 2.6296109999999997 7.8673455364307037 H
atom 10.7947264784123593 6.5311110000000001 2.7129513988100431 H
atom 2.1849282259368565 2.2862790000000000 9.8823139330195389 H
atom 9.6254946169650690 6.1877789999999990 0.6979830022212088 H
atom 3.2242454361122257 2.4813539999999996 0.7577050633207241 H
atom 8.5861774067896999 6.3828539999999983 9.8225918719200234 H
atom 4.3934772975595155 2.1380220000000003 2.7291894599095579 H
atom 7.4169455453424087 6.0395219999999989 7.8511074753311885 H
atom 6.6728889062395877 1.9351439999999998 2.6404707684110220 H
atom 5.1375339366623383 5.8366439999999988 7.9398261668297261 H
atom 8.8436446247649609 3.0915485999999994 2.8903404451082713 C
atom 2.9667782181369646 6.9930485999999989 7.6899564901324755 C
atom 9.6384860820922622 3.1992299999999991 4.0404957288499741 C
atom 2.1719367608096656 7.1007299999999995 6.5398012063907744 C
atom 10.8301577469410653 2.5749899999999997 4.1155253896157662 C
atom 0.9802650959608609 6.4764899999999992 6.4647715456249824 C
atom 0.8196433452973938 1.2703283999999997 3.3117867073057079 C
atom 10.9907794976045317 5.1718283999999999 7.2685102279350398 C
atom 1.3062327664249527 0.6679368000000000 2.2127097410376266 C
atom 10.5041900764769700 4.5694367999999992 8.3675871942031197 C
atom 0.5728055078807435 0.6382854000000000 1.0306040013591764 C
atom 11.2376173350211808 4.5397853999999986 9.5496929338815715 C
atom 10.8962961148613164 0.8122922999999999 9.0917283524531136 C
atom 0.9141267280406097 4.7137922999999988 1.4885685827876343 C
atom 10.1628688563171075 0.8442845999999999 7.9139710127746641 C
atom 1.6475539865848194 4.7457845999999986 2.6663259224660845 C
atom 8.8849811047151181 1.3163661000000000 7.8878087843816136 C
atom 2.9254417381868074 5.2178660999999984 2.6924881508591336 C
atom 6.8441400374616679 3.1773815999999995 6.7509290739720127 C
atom 4.9662828054402590 7.0788815999999990 3.8293678612687341 C
atom 6.1378767514561332 3.5433422999999995 5.6018548172446163 C
atom 5.6725460914457955 7.4448422999999986 4.9784421179961305 C
atom 4.8009368856396319 3.4169336999999995 5.5630138041753634 C
atom 7.0094859572622941 7.3184336999999999 5.0172831310653834 C
atom 2.6644313933586745 2.9456324999999994 6.7222697885903129 C
atom 9.1459914495432511 6.8471324999999998 3.8580271466504352 C
atom 2.0018666718718769 2.6272701000000001 7.8419847305233068 C
atom 9.8085561710300482 6.5287700999999991 2.7383122047174404 C
atom 2.6892332813287689 2.4119072999999993 9.0350081121543191 C
atom 9.1211895615731571 6.3134073000000006 1.5452888230864290 C
atom 4.1808896863872800 2.3619681000000003 0.6928483150752245 C
atom 7.6295331565146451 6.2634680999999990 9.8874486201655234 C
atom 4.8859719301085267 2.1879611999999993 1.8854356421090968 C
atom 6.9244509127933993 6.0894611999999988 8.6948612931316500 C
atom 6.2240928382093150 2.0943251999999997 1.8785893848718735 C
atom 5.5863300046926110 5.9958251999999987 8.7017075503688748 C
atom 11.3557215634502011 1.8656972999999999 3.0100536032339775 C
atom 0.4547012794517251 5.7671972999999985 7.5702433320067701 C
atom 11.1195131065921622 1.1915180999999997 0.6622961645291630 C
atom 0.6909097363097635 5.0930180999999983 9.9180007707115845 C
atom 10.3601029177935686 1.2297528000000000 10.2768200715931837 C
atom 1.4503199251083574 5.1312527999999986 0.3034768636475640 C
atom 8.2661149477470577 1.7868869999999999 9.0651515249750005 C
atom 3.5443078951548683 5.6883869999999987 1.5151454102657484 C
atom 6.9268129973619796 2.2566276000000003 9.0807236525186994 C
atom 4.8836098455399455 6.1581276000000003 1.4995732827220492 C
atom 6.2040151193763799 2.6982773999999994 7.8722658800819652 C
atom 5.6064077235255443 6.5997773999999989 2.7080310551587830 C
atom 4.0639665002425529 3.0142989000000000 6.6943440754163417 C
atom 7.7464563426593731 6.9157988999999986 3.8859528598244064 C
atom 4.0686906693797118 2.4696495000000001 9.0978058941904365 C
atom 7.7417321735222115 6.3711494999999987 1.4824910410503100 C
atom 4.8151093930511140 2.3721120000000000 10.3556888604976542 C
atom 6.9953134498508120 6.2736119999999991 0.2246080747430945 C
atom 6.9775978155864573 2.1770370000000003 0.6751035293402332 C
atom 4.8328250273154687 6.0785369999999990 9.9051934059005138 C
atom 8.3901243875975275 2.0873025000000003 0.6403354427950265 C
atom 3.4202984553043989 5.9888024999999985 9.9399614924457218 C
atom 9.2451990014236269 2.3237333999999996 1.8248824409064563 C
atom 2.5652238414782991 6.2252333999999987 8.7554144943342909 C
atom 10.5644232329757717 1.7806445999999996 1.8315465085728480 C
atom 1.2459996099261539 5.6821446000000000 8.7487504266678986 C
atom 9.0030853331441367 1.7135387999999996 10.2982637537340231 C
atom 2.8073375097577880 5.6150387999999989 0.2820331815067258 C
atom 4.7832212513752790 2.7021788999999994 7.8931051587725030 C
atom 7.0272015915266453 6.6036788999999994 2.6871917764682447 C
atom 6.2500757684636996 2.2792562999999997 10.3105845381294063 C
atom 5.5603470744382264 6.1807563000000005 0.2697123971113439 C
