#=======================================================
# FHI-aims file: pahs_geometry_fix/CORXAI10.in
# Created using the Atomic Simulation Environment (ASE)
# Tue May 25 14:20:52 2021
#=======================================================
lattice_vector 0.0000000000000006 3.8069999999999999 0.0000000000000002 
lattice_vector -0.0000000000000000 -0.0000000000000000 19.9750000000000014 
lattice_vector 25.6117259204820371 -0.0000000000000000 -2.9407304150684346 
atom 3.1784151867318209 0.8146979999999999 16.7096853554900093 C
atom 22.4333107337502184 2.9923020000000000 0.3245842294415582 C
atom 22.4333107337502184 2.7181979999999997 10.3120842294415613 C
atom 3.1784151867318209 1.0888019999999998 6.7221853554900086 C
atom 2.0489380736385630 0.8070839999999999 15.9444915667945271 C
atom 23.5627878468434773 2.9999160000000007 1.0897780181370398 C
atom 23.5627878468434773 2.7105839999999999 11.0772780181370400 C
atom 2.0489380736385634 1.0964159999999998 5.9569915667945255 C
atom 0.8272587472315699 0.3235950000000000 16.4223419075932888 C
atom 24.7844671732504693 3.4834049999999999 0.6119276773382751 C
atom 24.7844671732504693 2.2270949999999998 10.5994276773382783 C
atom 0.8272587472315703 1.5799049999999999 6.4348419075932917 C
atom 0.7453012242860277 3.5938079999999997 17.6941722449215106 C
atom 24.8664246961960096 0.2131920000000000 -0.6599026599899426 C
atom 24.8664246961960096 1.6903079999999999 9.3275973400100600 C
atom 0.7453012242860276 2.1166920000000000 7.7066722449215099 C
atom 1.9106347536679607 3.6090359999999997 18.5311540110358983 C
atom 23.7010911668140771 0.1979640000000000 -1.4968844261043293 C
atom 23.7010911668140771 1.7055359999999999 8.4906155738956741 C
atom 1.9106347536679602 2.1014640000000000 8.5436540110358958 C
atom 1.8414830936826592 3.0722490000000002 -0.1255460168434203 C
atom 23.7702428267993788 0.7347510000000000 17.1598156017749872 C
atom 23.7702428267993788 1.1687490000000000 7.1723156017749865 C
atom 1.8414830936826589 2.6382509999999999 9.8619539831565799 C
atom 2.9453484808554351 3.1065120000000004 0.7065085022671302 C
atom 22.6663774396266078 0.7004880000000000 16.3277610826644413 C
atom 22.6663774396266078 1.2030120000000000 6.3402610826644361 C
atom 2.9453484808554347 2.6039880000000002 10.6940085022671312 C
atom 2.8608297853178439 2.5659179999999999 2.0785079126368560 C
atom 22.7508961351641936 1.2410820000000000 14.9557616722947113 C
atom 22.7508961351641936 0.6624180000000000 4.9682616722947106 C
atom 2.8608297853178444 3.1445819999999998 12.0660079126368576 C
atom 3.9442057917542335 2.5849530000000001 2.8849500160794621 C
atom 21.6675201287278014 1.2220470000000003 14.1493195688521052 C
atom 21.6675201287278014 0.6814530000000000 4.1618195688521045 C
atom 3.9442057917542335 3.1255469999999996 12.8724500160794637 C
atom 5.2145473974101435 3.0836700000000001 2.4714247874920678 C
atom 20.3971785230718936 0.7233300000000000 14.5628447974395030 C
atom 20.3971785230718936 1.1801699999999999 4.5753447974394987 C
atom 5.2145473974101426 2.6268299999999996 12.4589247874920659 C
atom 6.3363409927272567 3.1826520000000000 3.3074132953120703 C
atom 19.2753849277547822 0.6243480000000000 13.7268562896194979 C
atom 19.2753849277547822 1.2791520000000001 3.7393562896194963 C
atom 6.3363409927272558 2.5278480000000001 13.2949132953120710 C
atom 6.2031600179407507 2.8628640000000001 4.7589075934704264 C
atom 19.4085659025412873 0.9441360000000000 12.2753619914611409 C
atom 19.4085659025412873 0.9593640000000000 2.2878619914611402 C
atom 6.2031600179407507 2.8476360000000001 14.7464075934704297 C
atom 7.2686078162328025 3.0570210000000002 5.5793932082035793 C
atom 18.3431181042492355 0.7499790000000002 11.4548763767279898 C
atom 18.3431181042492355 1.1535210000000000 1.4673763767279877 C
atom 7.2686078162328025 2.6534789999999999 15.5668932082035827 C
atom 8.4979706604159393 3.5405100000000003 5.1406106482802940 C
atom 17.1137552600660960 0.2664900000000000 11.8936589366512724 C
atom 17.1137552600660996 1.6370099999999999 1.9061589366512723 C
atom 8.4979706604159393 2.1699899999999999 15.1281106482802965 C
atom 9.5403679053795596 0.0038070000000000 6.0356529203870082 C
atom 16.0713580151024793 3.8031929999999998 10.9986166645445600 C
atom 16.0713580151024757 1.9073069999999999 1.0111166645445577 C
atom 9.5403679053795614 1.8996930000000001 16.0231529203870089 C
atom 10.7133849525376359 0.5367869999999999 5.5773724673768754 C
atom 14.8983409679444012 3.2702130000000000 11.4568971175546928 C
atom 14.8983409679444012 2.4402870000000001 1.4693971175546923 C
atom 10.7133849525376359 1.3667129999999998 15.5648724673768761 C
atom 10.9490128310060708 0.7766280000000001 4.2000077475582458 C
atom 14.6627130894759663 3.0303720000000007 12.8342618373733224 C
atom 14.6627130894759663 2.6801279999999998 2.8467618373733212 C
atom 10.9490128310060708 1.1268719999999999 14.1875077475582447 C
atom 9.9322273119629330 0.4758750000000000 3.2900397450364625 C
atom 15.6794986085191024 3.3311250000000006 13.7442298398951053 C
atom 15.6794986085191024 2.3793750000000000 3.7567298398951050 C
atom 9.9322273119629330 1.4276249999999999 13.2775397450364618 C
atom 10.1857833985757065 0.5520149999999999 1.8247240139272844 C
atom 15.4259425219063306 3.2549850000000000 15.2095455710042824 C
atom 15.4259425219063306 2.4555150000000001 5.2220455710042843 C
atom 10.1857833985757065 1.3514849999999998 11.8122240139272865 C
atom 11.4586861768236634 0.8337329999999999 1.3369972122983824 C
atom 14.1530397436583737 2.9732669999999999 15.6972723726331882 C
atom 14.1530397436583737 2.7372329999999998 5.7097723726331857 C
atom 11.4586861768236634 1.0697670000000001 11.3244972122983825 C
atom 11.7455375071330632 0.6966810000000000 -0.0202814683503841 C
atom 13.8661884133489757 3.1103189999999996 17.0545510532819549 C
atom 13.8661884133489757 2.6001810000000001 7.0670510532819524 C
atom 11.7455375071330632 1.2068190000000003 9.9672185316496158 C
atom 10.7313131606819727 0.2360340000000000 -0.8566360439136742 C
atom 14.8804127598000626 3.5709659999999999 17.8909056288452391 C
atom 14.8804127598000626 2.1395340000000003 7.9034056288452428 C
atom 10.7313131606819727 1.6674659999999999 9.1308639560863281 C
atom 9.4481656920658228 0.0152280000000000 -0.4116779501187456 C
atom 16.1635602284162125 3.7917719999999999 17.4459475350503155 C
atom 16.1635602284162125 1.9187280000000000 7.4584475350503130 C
atom 9.4481656920658246 1.8882720000000000 9.5758220498812570 C
atom 9.1075297373234125 0.2664900000000000 0.9477812644016651 C
atom 16.5041961831586264 3.5405100000000003 16.0864883205299023 C
atom 16.5041961831586228 2.1699899999999999 6.0989883205299016 C
atom 9.1075297373234125 1.6370099999999999 10.9352812644016666 C
atom 7.7629141264981047 0.0685260000000000 1.4377496111927577 C
atom 17.8488117939839306 3.7384740000000005 15.5965199737388112 C
atom 17.8488117939839306 1.9720260000000001 5.6090199737388087 C
atom 7.7629141264981056 1.8349739999999999 11.4252496111927595 C
atom 6.6027029423002688 0.1675080000000000 0.6381321989953582 C
atom 19.0090229781817719 3.6394919999999997 16.3961373859362141 C
atom 19.0090229781817719 2.0710080000000000 6.4086373859362071 C
atom 6.6027029423002688 1.7359920000000000 10.6256321989953602 C
atom 6.6385593585889442 0.8070839999999999 -0.6863323235857381 C
atom 18.9731665618930982 2.9999160000000007 17.7206019085173061 C
atom 18.9731665618930982 2.7105839999999999 7.7331019085173036 C
atom 6.6385593585889442 1.0964159999999998 9.3011676764142628 C
atom 5.5500610069684573 0.8375400000000000 18.5147737190546700 C
atom 20.0616649135135816 2.9694600000000002 -1.4805041341231049 C
atom 20.0616649135135816 2.7410399999999999 8.5069958658768954 C
atom 5.5500610069684573 1.0659600000000000 8.5272737190546710 C
atom 4.3130146450091749 0.2969460000000000 18.9045009981024776 C
atom 21.2987112754728614 3.5100540000000002 -1.8702314131709104 C
atom 21.2987112754728614 2.2004459999999999 8.1172685868290912 C
atom 4.3130146450091749 1.6065539999999998 8.9170009981024769 C
atom 3.1425587704431459 0.2779110000000000 18.0441373780711061 C
atom 22.4691671500388921 3.5290889999999999 -1.0098677931395381 C
atom 22.4691671500388921 2.1814109999999998 8.9776322068604628 C
atom 3.1425587704431464 1.6255890000000000 8.0566373780711036 C
atom 4.2054453961431513 3.5709659999999999 0.2482170658457633 C
atom 21.4062805243388858 0.2360340000000000 16.7860525190858034 C
atom 21.4062805243388858 1.6674659999999999 6.7985525190858045 C
atom 4.2054453961431513 2.1395340000000003 10.2357170658457637 C
atom 5.3502895447886987 3.5519310000000002 1.1035314162922041 C
atom 20.2614363756933393 0.2550690000000000 15.9307381686393636 C
atom 20.2614363756933393 1.6484310000000000 5.9432381686393621 C
atom 5.3502895447886978 2.1585690000000004 11.0910314162922052 C
atom 7.5913155628308777 3.5900009999999996 2.8317325049737168 C
atom 18.0204103576511621 0.2169990000000000 14.2025370799578496 C
atom 18.0204103576511621 1.6865010000000000 4.2150370799578498 C
atom 7.5913155628308759 2.1204990000000001 12.8192325049737157 C
atom 8.7028644677797971 3.7955790000000000 3.7368123049597464 C
atom 16.9088614527022401 0.0114210000000000 13.2974572799718196 C
atom 16.9088614527022401 1.8920790000000001 3.3099572799718207 C
atom 8.7028644677797971 1.9149209999999999 13.7243123049597475 C
atom 12.0804275039499913 1.0977827269234961 1.8852813210000812 H
atom 11.7046521614153463 1.1027935368705799 3.9180055403034988 H
atom 12.5325014520586571 0.8924095055026614 -0.3353657452047635 H
atom 11.3196723115894677 0.7263843156949673 6.1718205274588485 H
atom 3.8992059160216126 1.1514249403328760 16.3575835346711536 H
atom 2.1090604764037142 1.1173883559107352 15.1339383585542766 H
atom 0.1139281254766847 0.3569532242287757 15.9254046349490554 H
atom 5.6491176208785063 1.2183345945847646 17.7388334739483184 H
atom 7.3411605760972236 1.1877187123021404 18.9446200853072355 H
atom 10.9070909047605404 0.0792653682135804 18.2808522960036335 H
atom 1.1085058709723752 2.7154198779997794 0.1782917172852932 H
atom 2.1418246674516261 2.2213868411324600 2.4266887866830547 H
atom 3.8213646008582387 2.2697896310307906 3.6864998228159029 H
atom 5.4833872372019190 2.5542416557801926 5.1378263087059768 H
atom 7.1591159286546491 2.8637531602812949 6.4205585122223789 H
atom 8.8605837077008829 3.5279306379920152 -0.9817976519050416 H
atom 9.4583034019262069 3.6457711509290740 6.8859049923012110 H
atom 25.5990468301217149 3.2583478019902934 15.0176998442252003 H
atom 0.0126790903603302 0.5486521980097065 2.0165697407063687 H
atom 24.5032200495096681 1.0915801220002186 16.8559778676462706 H
atom 23.4699012530304074 1.5856131588675406 14.6075807982485095 H
atom 21.7903613196238091 1.5372103689692036 13.3477697621156501 H
atom 20.1283386832801234 1.2527583442198065 11.8964432762255932 H
atom 16.7511422127811542 0.2790693620079815 18.0160672368366193 H
atom 18.4526099918273943 0.9432468397187055 10.6137110727091883 H
atom 16.1534225185558569 0.1612288490709258 10.1483645926303563 H
atom 21.7125200044604263 2.6555750596671199 0.6766860502604005 H
atom 23.5026654440783354 2.6896116440892670 1.9003312263772909 H
atom 25.4977977950053578 3.4500467757712223 1.1088649499825047 H
atom 19.9626082996035272 2.5886654054152327 -0.7045638890167605 H
atom 18.2705653443848242 2.6192812876978588 -1.9103505003756671 H
atom 14.7046350157214860 3.7277346317864191 -1.2465827110720737 H
atom 13.5312984165320387 2.7092172730764994 15.1489882639315017 H
atom 13.0792244684233783 2.9145904944973338 17.3696353301363118 H
atom 13.9070737590666926 2.7042064631294185 13.1162640446280818 H
atom 14.2920536088925694 3.0806156843050352 10.8624490574727162 H
atom 0.0126790903603302 1.3548478019902941 12.0040697407063686 H
atom 21.7125200044604263 3.0549249403328784 10.6641860502604029 H
atom 23.5026654440783389 3.0208883559107362 11.8878312263772887 H
atom 25.4977977950053578 2.2604532242287720 11.0963649499825046 H
atom 19.9626082996035272 3.1218345945847630 9.2829361109832398 H
atom 24.5032200495096646 0.8119198779997818 6.8684778676462672 H
atom 18.2705653443848242 3.0912187123021426 8.0771494996243280 H
atom 23.4699012530304039 0.3178868411324574 4.6200807982485061 H
atom 21.7903613196238091 0.3662896310307939 3.3602697621156565 H
atom 20.1283386832801199 0.6507416557801933 1.9089432762255807 H
atom 16.7511422127811542 1.6244306379920181 8.0285672368366185 H
atom 18.4526099918273871 0.9602531602812958 0.6262110727091843 H
atom 14.7046350157214860 1.9827653682135788 8.7409172889279283 H
atom 13.5312984165320440 3.0012827269234972 5.1614882639314859 H
atom 13.0792244684233818 2.7959095055026615 7.3821353301363315 H
atom 13.9070737590666926 3.0062935368705799 3.1287640446280718 H
atom 16.1534225185558320 1.7422711509290718 0.1608645926303583 H
atom 14.2920536088925729 2.6298843156949698 0.8749490574727197 H
atom 3.8992059160216175 0.7520750596671222 6.3700835346711671 H
atom 2.1090604764037133 0.7861116440892670 5.1464383585542661 H
atom 0.1139281254766805 1.5465467757712243 5.9379046349490645 H
atom 1.1085058709723743 2.9950801220002177 10.1657917172852894 H
atom 5.6491176208785063 0.6851654054152305 7.7513334739483266 H
atom 7.3411605760972209 0.7157812876978593 8.9571200853072241 H
atom 2.1418246674516284 3.4891131588675335 12.4141887866830718 H
atom 3.8213646008582387 3.4407103689692105 13.6739998228159028 H
atom 5.4833872372019234 3.1562583442198084 15.1253263087059917 H
atom 7.1591159286546491 2.8467468397187043 16.4080585122223859 H
atom 8.8605837077008758 2.1825693620079818 9.0057023480949603 H
atom 12.0804275039499984 0.8057172730764992 11.8727813210000672 H
atom 10.9070909047605387 1.8242346317864186 8.2933522960036328 H
atom 9.4583034019262051 2.0647288490709266 16.8734049923012144 H
atom 11.7046521614153463 0.8007064631294177 13.9055055403035031 H
atom 12.5325014520586571 1.0110904944973380 9.6521342547952429 H
atom 11.3196723115894677 1.1771156843050308 16.1593205274588492 H
atom 25.5990468301217149 2.4521521980097059 5.0301998442251898 H
