#=======================================================
# FHI-aims file: pahs_geometry_fix/CEQGEL.in
# Created using the Atomic Simulation Environment (ASE)
# Tue May 25 14:20:52 2021
#=======================================================
lattice_vector 10.6855645782734285 0.0000000000000000 3.3962304005394284 
lattice_vector 4.3699359901753354 10.0688494069889689 3.3497025332330965 
lattice_vector 0.0000000000000000 0.0000000000000000 11.8490000000000002 
atom 10.7030190422988021 3.6348546359230176 7.2851553765578201 H
atom 4.3524815261499601 6.4339947710659509 11.3097775572147050 H
atom 10.7396408180326990 5.6888999149487667 8.4077362612942164 H
atom 4.3158597504160658 4.3799494920402013 10.1871966724783078 H
atom 12.7410338026271202 7.1488830789621671 8.4276366198820636 H
atom 2.3144667658216433 2.9199663280268009 10.1672963138904624 H
atom 4.2775251269990289 7.5415682058347375 4.4277878550422960 H
atom 10.7779754414497351 2.5272812011542314 14.1671450787302291 H
atom 6.2010212193500562 6.8770241449734666 15.0998671807605724 H
atom 8.8544793490987068 3.1918252620155032 3.4950657530119522 H
atom 7.3519012747668979 5.1955262940063083 13.6807764082055847 H
atom 7.7035992936818660 4.8733231129826606 4.9141565255669395 H
atom 7.3648159367285260 3.1817564126085141 12.4869910248037392 H
atom 7.6906846317202380 6.8870929943804553 6.1079419089687867 H
atom 5.5091294710340861 1.7620486462230693 12.4501502411552991 H
atom 9.5463710974146778 8.3068007607658991 6.1447826926172269 H
atom 3.8423388439264485 0.6544752114542830 12.4748863880397813 H
atom 11.2131617245223154 9.4143741955346858 6.1200465457327438 H
atom 6.2973234677222081 9.3640299484997414 3.8250355096195205 H
atom 8.7581771007265559 0.7048194584892279 2.9208974241530048 H
atom 15.0166496953315161 10.0285740093610123 8.3846016628385129 H
atom 0.0388508731172482 0.0402753976279559 10.2103312709340113 H
atom 10.7304476751933429 2.0238387308047829 6.2455086384772054 H
atom 4.3250528932554202 8.0450106761841873 12.3494242952953197 H
atom 4.3386603224703242 1.1579176818037316 4.2230915051154607 H
atom 10.7168402459784406 8.9109317251852378 14.3718414286570635 H
atom 6.3507703610636232 2.3963861588633746 4.3454487119775731 H
atom 8.7047302073851398 7.6724632481255943 14.2494842217949529 H
atom 8.0911447137804107 1.8023240438510253 5.6834353474176940 H
atom 6.9643558546683533 8.2665253631379425 12.9114975863548320 H
atom 9.0972753518859300 0.1812392893258014 7.1923531036534731 H
atom 5.9582252165628340 9.8876101176631668 11.4025798301190520 H
atom 13.3426808063089322 8.1658368690680536 11.7909990317466971 H
atom 1.7128197621398329 1.9030125379209151 6.8039339020258280 H
atom 12.1889232366408322 6.1722046864842381 12.3631477093519795 H
atom 2.8665773318079317 3.8966447205047312 6.2317852244205456 H
atom 10.1714861604686977 4.8229788659477162 12.2649246962264620 H
atom 4.8840144079800663 5.2458705410412527 6.3300082375460640 H
atom 8.3164733915774871 5.4975917762159776 10.9654334554446535 H
atom 6.7390271768712786 4.5712576307729922 7.6294994783278716 H
atom 6.7494923155053268 6.1218604394492928 10.0202113836123239 H
atom 8.3060082529434371 3.9469889675396761 8.5747215501602021 H
atom 4.8590100184777798 6.8870929943804553 8.7389428528258382 H
atom 10.1964905499709833 3.1817564126085141 9.8559900809466878 H
atom 5.0661222766697183 8.8907940263712604 7.4531643721057792 H
atom 9.9893782917790439 1.1780553806177094 11.1417685616667459 H
atom 2.6781853239507849 0.0402753976279559 4.1886291798672506 H
atom 12.3773152444979786 10.0285740093610123 14.4063037539052736 H
atom 11.5337860963743974 4.2269029810539696 7.3031009580208925 C
atom 3.5217144720743674 5.8419464259350002 11.2918319757516326 C
atom 11.5469714347549495 5.4341580249519463 7.9796185786097560 C
atom 3.5085291336938140 4.6346913820370226 10.6153143551627682 C
atom 12.6547086952685071 6.2285902431633762 7.9840033590803641 C
atom 2.4007918731802573 3.8402591638255927 10.6109295746921628 C
atom 3.1240679045242965 5.8268431518245158 3.9049928892920387 C
atom 11.9314326639244683 4.2420062551644531 14.6899400444804851 C
atom 4.3018418936339469 6.6373855290871280 3.8921185531790012 C
atom 10.7536586748148153 3.4314638779018405 14.7028143805935247 C
atom 5.4099406173364946 6.2557761365622460 3.2185207909137663 C
atom 9.6455599511122703 3.8130732704267225 15.3764121428587579 C
atom 5.4565975895363330 5.0263696239688933 14.3393549223552963 C
atom 9.5989029789124309 5.0424797830200756 4.2555780114172279 C
atom 6.5884979836718012 4.6306638422742266 13.6184414216650449 C
atom 8.4670025847769637 5.4381855647147423 4.9764915121074793 C
atom 6.6033822436713576 3.4536153465972168 12.9365843312366380 C
atom 8.4521183247774072 6.6152340603917530 5.6583486025358880 C
atom 5.4959415604605795 2.6229352705206264 12.9323443672472020 C
atom 9.5595590079881845 7.4459141364683425 5.6625885665253248 C
atom 4.3303895102587013 2.9632623804768534 13.6211137966441846 C
atom 10.7251110581900626 7.1055870265121150 4.9738191371283413 C
atom 3.1310051165953388 2.1275478796967691 1.7578139460235991 C
atom 11.9244954518534243 7.9413015272921994 16.8371189877489265 C
atom 3.0774570571565723 0.9233134906208885 12.8860636376326028 C
atom 11.9780435112921939 9.1455359163680807 5.7088692961399232 C
atom 1.9448974248317006 0.1480120862827378 0.9929679777334659 C
atom 13.1106031436170625 9.9208373207062301 17.6019649560390583 C
atom 0.8124643269383497 0.5326421336297165 1.6866723977973757 C
atom 14.2430362415104153 9.5362072733592527 16.9082605359751490 C
atom 0.8362936727018637 1.6905598154334478 2.4091007671750155 C
atom 14.2192068957468987 8.3782895915555198 16.1858321665975105 C
atom 1.9721005315955293 2.5151985818658442 2.4579118778060765 C
atom 13.0834000368532344 7.5536508251231247 16.1370210559664500 C
atom 1.9680359545863648 3.7738047577394656 3.2029315288324329 C
atom 13.0874646138623998 6.2950446492495029 15.3920014049400926 C
atom 3.1279347633316088 4.5924022145276684 3.2049028939449027 C
atom 11.9275658051171565 5.4764471924613005 15.3900300398276233 C
atom 4.3141879715779714 4.1815931587225190 2.4888441527378773 C
atom 10.7413125968707917 5.8872562482664499 16.1060887810346500 C
atom 5.0850416639011051 0.8538384297126645 4.7553857275361624 C
atom 9.9704589045476588 9.2150109772763038 13.8395472062363627 C
atom 6.2413551115794643 1.6100090201775359 4.8163395438237737 C
atom 8.8141454568693014 8.4588403868114330 13.7785933899487514 C
atom 7.2993336898071126 1.1941655396688917 5.5953457326237661 C
atom 7.7561668786416513 8.8746838673200763 12.9995872011487581 C
atom 11.5950777644048113 10.0678425220482701 9.6544152598245354 C
atom 3.4604228040439531 0.0010068849406989 8.9405176739479888 C
atom 12.6808929634995238 9.6127305288523690 10.4843875764271832 C
atom 2.3746076049492402 0.4561188781366003 8.1105453573453410 C
atom 12.6025672383868148 8.4548128470486379 11.1582241320067936 C
atom 2.4529333300619487 1.6140365599403317 7.4367088017657315 C
atom 11.4434467066807404 7.6281603107348435 11.1122750970279522 C
atom 3.6120538617680236 2.4406890962541259 7.4826578367445720 C
atom 11.3674589616275981 6.4239259216589621 11.8145670047958227 C
atom 3.6880416068211641 3.6449234853300068 6.7803659289767024 C
atom 10.2346059009420109 5.6627209064905966 11.7707533902028896 C
atom 4.8208946675067539 4.4061285004983723 6.8241795435696355 C
atom 9.1295151284110911 6.0684955375922520 11.0281330772675048 C
atom 5.9259854400376719 4.0003538693967169 7.5667998565050194 C
atom 9.1554274341267075 7.2656817320832401 10.3002586639639997 C
atom 5.9000731343220565 2.8031676749057288 8.2946742698085263 C
atom 8.0037987282457159 7.7218006102198409 9.5088096891313292 C
atom 7.0517018402030489 2.3470487967691285 9.0861232446411968 C
atom 6.7955088547692810 7.0059054173829240 9.4794657853731437 C
atom 8.2599917136794829 3.0629439896060444 9.1154671483993805 C
atom 5.7258240105849643 7.4267833225950639 8.7427455483190659 C
atom 9.3296765578637988 2.6420660843939054 9.8521873854534583 C
atom 5.8199835133052904 8.5867147742801926 7.9961302558068583 C
atom 9.2355170551434735 1.4821346327087761 10.5988026779656650 C
atom 6.9862105464068742 9.3066375068799037 7.9998555959361255 C
atom 8.0692900220418888 0.7622119001090650 10.5950773378363987 C
atom 8.0959136792671931 8.9139523800073341 8.7630794991246592 C
atom 6.9595868891815718 1.1548970269816348 9.8318534346478668 C
atom 9.3275046297877946 9.7204672175071511 8.7973330800811329 C
atom 5.7279959386609693 0.3483821894818183 9.7975998536913931 C
atom 10.4185637520707193 9.2774378435996354 9.5886686397236609 C
atom 4.6369368163780447 0.7914115633893329 9.0062642940488651 C
atom 10.3286400669284504 8.0460175611248861 10.3274482045716933 C
atom 4.7268605015203136 2.0228318458640837 8.2674847292008309 C
