#=======================================================
# FHI-aims file: pahs_geometry_fix/TETCEN01.in
# Created using the Atomic Simulation Environment (ASE)
# Tue May 25 14:20:53 2021
#=======================================================
lattice_vector -5.7639160318322000 0.0000000000000000 -1.8596946598804189 
lattice_vector 0.0409124222411101 7.6405024996347581 1.7461447496646356 
lattice_vector 5.7639160318322000 0.0000000000000000 -11.1507053401195826 
atom -0.9440596856006265 3.7805206368192779 -1.5912484144639321 H
atom 0.9849721078417359 3.8599818628154798 -9.6730068358714316 H
atom 0.3626293791125382 4.9663266247625932 -3.3557621140469580 H
atom -0.3217169568714292 2.6741758748721653 -7.9084931362884072 H
atom 2.2354168229961076 6.1674136177051757 -3.9804991885303984 H
atom -2.1945044007549974 1.4730888819295811 -7.2837560618049659 H
atom -1.9141871367063590 6.7832381191757376 -4.2116961641512694 H
atom 1.9550995589474685 0.8572643804590199 -7.0525590861840941 H
atom -2.1698173716242941 6.1910991754540436 -2.0280582083530416 H
atom 2.2107297938654051 1.4494033241807134 -9.2361970419823241 H
atom -3.4914721618091029 5.0091134387605472 -0.2610014425108732 H
atom 3.5323845840502130 2.6313890608742101 -11.0032538078244926 H
atom -4.2481008197092711 1.7045961076685145 -2.4268589421374962 H
atom 4.2890132419503812 5.9359063919662427 -8.8373963081978690 H
atom -3.0205656017745173 2.8552557841135084 -4.2834295244093434 H
atom 3.0614780240156270 4.7852467155212484 -6.9808257259260227 H
atom -1.0740120035712768 3.1929659945973650 -5.4483834282305130 H
atom 1.1149244258123856 4.4475365050373927 -5.8158718221048531 H
atom 0.9095017611321202 2.0369579664026261 -4.8364213322640506 H
atom -0.8685893388910119 5.6035445332321308 -6.4278339180713138 H
atom 0.9173114304033764 0.5890827427218399 -3.0767274667438222 H
atom -0.8763990081622666 7.0514197569129191 -8.1875277835915430 H
atom -0.2559479861192276 7.0987908724106532 0.5139884992595128 H
atom 0.2968604083603370 0.5417116272241043 -11.7782437495948784 H
atom -0.2862036308832070 4.0318931690572617 -0.9537867104395863 C
atom 0.3271160531243151 3.6086093305774964 -10.3104685398957798 C
atom 0.8175650566122314 4.7814264642714308 -1.3513985693923021 C
atom -0.7766526343711201 2.8590760353633264 -9.9128566809430634 C
atom 1.0122932141186702 5.1947776495016704 -2.7001216167954385 C
atom -0.9713807918775598 2.4457248501330855 -8.5641336335399281 C
atom 2.1153218603219592 5.9137489347173018 -3.0723780242128007 C
atom -2.0744094380808504 1.7267535649174555 -8.1918772261225641 C
atom -2.6765592158430831 6.2812571049497352 -3.9509295503764763 C
atom 2.7174716380841937 1.3592453946850236 -7.3133256999588898 C
atom -2.8260219851344246 5.9252096884667536 -2.6604734390037863 C
atom 2.8669344073755334 1.7152928111680030 -8.6037818113315794 C
atom -3.9483293025028785 5.1581032375034255 -2.2220881758869173 C
atom 3.9892417247439873 2.4823992621313331 -9.0421670744484484 C
atom -4.1406741599943269 4.7592690070224899 -0.9070337355954662 C
atom 4.1815865822354352 2.8812334926122674 -10.3572215147398996 C
atom -0.4739128080958439 3.6376432400761081 0.3703083724295691 C
atom 0.5148252303369539 4.0028592595586501 -11.6345636227649347 C
atom -3.4452996742167632 1.2530424099401001 -2.1947964328573826 C
atom 3.4862120964578724 6.3874600896946578 -9.0694588174779831 C
atom -2.2837510006772428 1.4906620376787412 -2.9136520761088835 C
atom 2.3246634229183520 6.1498404619560167 -8.3506031742264817 C
atom -2.2339770635311735 2.3899491818857519 -4.0245891407262882 C
atom 2.2748894857722819 5.2505533177490049 -7.2396661096090771 C
atom -1.0864663505792547 2.5893662971262188 -4.7150054949098266 C
atom 1.1273787728203646 5.0511362025085376 -6.5492497554255378 C
atom 0.1098497543398201 1.8925524691595297 -4.3439510678921378 C
atom -0.0689373320987097 5.7479500304752271 -6.9203041824432265 C
atom 0.1121965360136871 1.0391083399503269 -3.3072810028378221 C
atom -0.0712841137725761 6.6013941596844301 -7.9569742474975422 C
atom -1.0684262465797940 0.7915560589621610 -2.5421886601384900 C
atom 1.1093386688209035 6.8489464406725959 -8.7220665901968761 C
atom -1.0564558389256753 7.5480524193891778 0.2691356244184511 C
atom 1.0973682611667857 0.0924500802455806 -11.5333908747538150 C
atom -3.4927925924034446 0.3491709642333084 -1.1179902172258223 C
atom 3.5337050146445539 7.2913315354014490 -10.1462650331095414 C
