#=======================================================
# FHI-aims file: pahs_geometry_fix/CENYAV.in
# Created using the Atomic Simulation Environment (ASE)
# Tue May 25 14:20:52 2021
#=======================================================
lattice_vector 8.5728327893939209 0.0000000000000000 -0.3742979629819472 
lattice_vector 0.0000000000000018 10.9710000000000001 0.0000000000000007 
lattice_vector 0.0000000000000000 0.0000000000000000 14.6549999999999994 
atom 7.5355200218772573 3.0828510000000002 5.4010970905388689 H
atom 1.0373127675166658 8.5683509999999998 8.8796049464791835 H
atom 6.2495951034681685 1.3933170000000001 6.6003317849861602 H
atom 2.3232376859257537 6.8788169999999997 7.6803702520318931 H
atom 7.0040043889348347 10.1481750000000002 6.4208435642437500 H
atom 1.5688284004590882 4.6626750000000001 7.8598584727743042 H
atom 8.4356674647636201 8.4586410000000001 5.5669658044257648 H
atom 0.1371653246303032 2.9731410000000000 8.7137362325922876 H
atom 1.6802752267212100 7.8223229999999999 4.6895125992555391 H
atom 6.8925575626727129 2.3368229999999999 9.5911894377625142 H
atom 2.9662001451302977 9.4240890000000004 3.5928629048082468 H
atom 5.6066326442636250 3.9385889999999999 10.6878391322098061 H
atom 8.1613368155030130 3.3022709999999997 2.6332883392411861 H
atom 0.4114959738909096 8.7877710000000011 11.6474136977768676 H
atom 0.5486612985212118 5.1892829999999996 1.8518849303691556 H
atom 8.0241714908727122 10.6747829999999997 12.4288171066488982 H
atom 2.4604030105560559 6.5935709999999998 1.5632464846241816 H
atom 6.1124297788378650 1.1080710000000000 12.7174555523938704 H
atom 4.6293297062727188 7.3176570000000005 2.2452640999897491 H
atom 3.9435030831212043 1.8321570000000000 12.0354379370283038 H
atom 6.4039060936772598 7.1860050000000006 3.8091444216524861 H
atom 2.1689266957166624 1.7005049999999999 10.4715576153655672 H
atom 7.5012286907196817 6.3631799999999998 5.9008642823907964 H
atom 1.0716040986742403 0.8776800000000000 8.3798377546272551 H
atom 6.3353234313621085 4.6187909999999999 7.1681338053563408 H
atom 2.2375093580318151 10.1042909999999999 7.1125682316617116 H
atom 4.3635718898015066 3.2035320000000000 7.3128423368421887 H
atom 4.2092608995924170 8.6890320000000010 6.9678597001758638 H
atom 2.4175388466090859 2.3477939999999999 6.5331629744390911 H
atom 6.1552939427848354 7.8332939999999995 7.7475390625789631 H
atom 4.2864163946969605 0.8447670000000000 4.5903810185090261 H
atom 4.2864163946969613 6.3302669999999992 9.6903210185090263 H
atom 5.7780893000515032 2.2929390000000001 3.3528531729501676 H
atom 2.7947434893424195 7.7784389999999997 10.9278488640678848 H
atom 6.2410222706787755 3.7740239999999998 1.5154210829491426 H
atom 2.3318105187151481 9.2595239999999990 12.7652809540689098 H
atom 5.3837389917393832 4.8052979999999996 14.1268408792473359 H
atom 3.1890937976545404 10.2907979999999988 0.1538611577707163 H
atom 3.6348811027030234 5.1124860000000005 12.4445976636956548 H
atom 4.9379516866908997 10.5979860000000006 1.8361043733223992 H
atom 1.3716532463030280 4.4761679999999995 11.5615273259228886 H
atom 7.2011795430908947 9.9616679999999995 2.7191747110951647 H
atom 0.1457381574196971 2.9182860000000002 12.7288319346293068 H
atom 8.4270946319742261 8.4037860000000002 1.5518701023887465 H
atom 8.3756576352378609 1.4591430000000001 14.2746558901666365 H
atom 0.1971751541560613 6.9446430000000001 0.0060461468514156 H
atom 0.4543601378378779 0.5704920000000000 1.9732422079619569 H
atom 8.1184726515560452 6.0559920000000007 12.3074598290560964 H
atom 0.3420560282968177 1.8650700000000002 5.0337130112770199 C
atom 8.2307767610971041 7.3505700000000003 9.2469890257410317 C
atom 7.7909904390011961 2.1415392000000000 5.4177875112420066 C
atom 0.7818423503927269 7.6270392000000005 8.8629145257760467 C
atom 7.0665860682974095 1.1486637000000000 6.0634601891139805 C
atom 1.5062467210965129 6.6341637000000002 8.2172418479040719 C
atom 7.4420761444728640 10.8437363999999992 5.9679289383353717 C
atom 1.1307566449210589 5.3582364000000000 8.3127730986826815 C
atom 8.5719755061149829 10.4805963000000002 5.1961049668143513 C
atom 0.0008572832789402 4.9950963000000002 9.0845970702037011 C
atom 0.3763473594543946 9.1289690999999991 5.4953138194250926 C
atom 8.1964854299395267 3.6434690999999999 8.7853882175929598 C
atom 1.4316630758287863 8.7438870000000009 4.7809697401820150 C
atom 7.1411697135651364 3.2583869999999999 9.4997322968360383 C
atom 2.2066471599899971 9.7027523999999996 4.0905892043284471 C
atom 6.3661856294039270 4.2172524000000005 10.1901128326896071 C
atom 1.8894523467824202 0.0570492000000000 4.1220242289587787 C
atom 6.6833804426115009 5.5425491999999998 10.1586778080592737 C
atom 0.7578384185824227 0.5024718000000000 4.8880610600723955 C
atom 7.8149943708114993 5.9879717999999995 9.3926409769456569 C
atom 1.0107369858695439 3.0444525000000002 4.3992662701644285 C
atom 7.5620958035243797 8.5299525000000003 9.8814357668536239 C
atom 0.3960648748699998 3.6774792000000001 3.3240474341102342 C
atom 8.1767679145239232 9.1629792000000005 10.9566546029078182 C
atom 0.9738738048751503 4.7405691000000001 2.6789132514052509 C
atom 7.5989589845187728 10.2260691000000001 11.6017887856128024 C
atom 2.2143627095004503 5.2375553999999998 3.0878503361617633 C
atom 6.3584700798934728 10.7230553999999998 11.1928517008562896 C
atom 2.8178901378737828 4.6582865999999994 4.2382962595678340 C
atom 5.7549426515201407 10.1437866000000003 10.0424057774502185 C
atom 2.9096194487202975 6.2644409999999997 2.3775027713639272 C
atom 5.6632133406736243 0.7789409999999999 11.9031992656541252 C
atom 4.1183888720248403 6.6879216000000001 2.7834282585834726 C
atom 4.4544439173690806 1.2024216000000001 11.4972737784345789 C
atom 4.7476347987663541 6.1689933000000003 3.9561992881005983 C
atom 3.8251979906275673 0.6834933000000000 10.3245027489174550 C
atom 4.0763819913568105 5.1541758000000000 4.6918778186020837 C
atom 4.4964507980371131 10.6396758000000009 9.5888242184159687 C
atom 6.0052693689704428 6.5935709999999998 4.4230077769311462 C
atom 2.5675634204234794 1.1080710000000000 9.8576942600869071 C
atom 6.5650753501178656 6.0724485000000001 5.5445871199484245 C
atom 2.0077574392760562 0.5869485000000000 8.7361149170696279 C
atom 5.9066817918924119 5.1168743999999995 6.2884972035054378 C
atom 2.6661509975015112 10.6023744000000004 7.9922048335126146 C
atom 4.6721938702196883 4.6275678000000005 5.8602466101748387 C
atom 3.9006389191742361 10.1130677999999996 8.4204554268432155 C
atom 3.9940827965786281 3.5754489000000005 6.5390700790467111 C
atom 4.5787499928152950 9.0609488999999996 7.7416319579713431 C
atom 2.8436086362419641 3.0565206000000003 6.0822378656788878 C
atom 5.7292241531519590 8.5420205999999990 8.1984641713391646 C
atom 2.2092190098268136 3.5809344000000003 4.9038294149395520 C
atom 6.3636137795671086 9.0664344000000003 9.3768726220785013 C
atom 2.7553084585112062 0.9478944000000000 3.2987121346976020 C
atom 5.8175243308827156 6.4333944000000001 10.9819899023204517 C
atom 4.0438052267571125 1.2550824000000000 3.7377941508614154 C
atom 4.5290275626368093 6.7405823999999992 10.5429078861566374 C
atom 4.8702263076546872 2.0713248000000002 3.0158578272299557 C
atom 3.7026064817392359 7.5568247999999993 11.2648442097880963 C
atom 4.4613021836005959 2.6462051999999998 1.8202778400641950 C
atom 4.1115306057933259 8.1317051999999990 12.4604241969538592 C
atom 3.1685189989599936 2.3236577999999999 1.3271594728818725 C
atom 5.4043137904339282 7.8091578000000004 12.9535425641361801 C
atom 5.2800077149877165 3.5589924000000002 1.0664373845994188 C
atom 3.2928250744062062 9.0444924000000011 13.2142646524186329 C
atom 4.8436505260075657 4.1086394999999998 -0.0473423490847999 C
atom 3.7291822633863569 9.5941395000000007 14.3280443861028530 C
atom 3.5465809249722655 3.8332674000000000 14.0751579327143670 C
atom 5.0262518644216581 9.3187674000000005 0.2055441043036849 C
atom 2.7107297280063580 2.9095092000000000 0.1161269841051085 C
atom 5.8621030613875647 8.3950092000000005 14.1645750529129444 C
atom 3.0373546572822669 4.4246043000000004 12.9264567317154953 C
atom 5.5354781321116571 9.9101043000000004 1.3542453053025572 C
atom 1.8122968516778757 4.1229018000000002 12.4347779106256162 C
atom 6.7605359377160479 9.6084018000000011 1.8459241263924371 C
atom 0.9901621871749985 3.2090174999999999 13.0861830852755858 C
atom 7.5826706022189247 8.6945174999999999 1.1945189517424681 C
atom 1.4368067755024216 2.6012241000000000 14.2742541614042242 C
atom 7.1360260138915006 8.0867240999999996 0.0064478756138276 C
atom 0.6343896264151503 1.6741746000000002 0.3269529507393360 C
atom 7.9384431629787722 7.1596745999999998 13.9537490862787159 C
atom 1.0467428835849979 1.1234304000000002 1.4974697187199044 C
atom 7.5260899058089246 6.6089304000000002 12.7832323182981487 C
atom 2.3292386688783289 1.4492691000000000 2.0569847434578046 C
atom 6.2435941205155929 6.9347690999999996 12.2237172935602487 C
