#=======================================================
# FHI-aims file: pahs_geometry_fix/VEBJES.in
# Created using the Atomic Simulation Environment (ASE)
# Tue May 25 14:20:53 2021
#=======================================================
lattice_vector -0.0000000000000013 -8.0785999999999998 -0.0000000000000005 
lattice_vector -12.4395870715095942 4.0392999999999999 6.2714294696529436 
lattice_vector 0.0000000000000000 0.0000000000000000 -16.0278999999999989 
atom -5.9085550672256275 -3.1215710399999983 -12.0398195675042441 C
atom -6.5310320042839685 -0.9177289600000001 2.2833490371571892 C
atom -6.5310320042839676 0.9177289600000010 -5.7306009628428107 C
atom -5.9085550672256275 -4.9570289599999997 -4.0258695675042455 C
atom -7.2378493416871423 -2.7039074200000006 -12.2378859573771308 C
atom -5.2017377298224536 -1.3353925799999991 2.4814154270300746 C
atom -5.2017377298224545 1.3353925800000013 -5.5325345729699240 C
atom -7.2378493416871441 -5.3746925800000005 -4.2239359573771305 C
atom -4.8564147927173469 -2.3936891800000000 -12.7164315200474896 C
atom -7.5831722787922482 -1.6456108200000004 2.9599609897004360 C
atom -7.5831722787922473 1.6456108199999999 -5.0539890102995644 C
atom -4.8564147927173495 -5.6849108199999989 -4.7024815200474901 C
atom -3.4940312166456158 -2.7661126399999993 -12.4888867805638828 C
atom -8.9455558548639793 -1.2731873600000010 2.7324162502168243 C
atom -8.9455558548639793 1.2731873599999997 -5.2815337497831747 C
atom -3.4940312166456162 -5.3124873599999995 -4.4749367805638816 C
atom -3.1994617947922710 -3.8203699400000004 -11.6372532704052620 C
atom -9.2401252767173254 -0.2189300600000003 1.8807827400582056 C
atom -9.2401252767173254 0.2189300599999991 -6.1331672599417937 C
atom -3.1994617947922710 -4.2582300599999989 -3.6233032704052630 C
atom -4.2593146132848876 -4.5813740600000008 -11.0059586845908317 C
atom -8.1802724582247084 0.5420740600000005 1.2494881542437757 C
atom -8.1802724582247084 -0.5420740600000014 -6.7644618457562240 C
atom -4.2593146132848876 -3.4972259399999999 -2.9920086845908309 C
atom -5.5928383473507157 -4.2154134799999987 -11.2163178984440357 C
atom -6.8467487241588811 0.1761134800000013 1.4598473680969828 C
atom -6.8467487241588811 -0.1761134800000003 -6.5541026319030182 C
atom -5.5928383473507157 -3.8631865199999997 -3.2023678984440367 C
atom -6.6974736793007663 -4.9748018800000002 -10.5501046835388550 C
atom -5.7421133922088305 0.9355018800000005 0.7936341531917996 C
atom -5.7421133922088297 -0.9355018800000002 -7.2203158468082007 C
atom -6.6974736793007663 -3.1037981199999995 -2.5361546835388551 C
atom -7.4513126558342471 2.2127285399999992 -11.2487337276778874 C
atom -4.9882744156753489 -6.2520285400000004 1.4922631973308325 C
atom -4.9882744156753471 -1.8265714600000011 -6.5216868026691710 C
atom -7.4513126558342471 -2.2127285399999996 -3.2347837276778870 C
atom -8.5094239321368512 1.5510912000000006 -10.6447631769892084 C
atom -3.9301631393727452 -5.5903912000000000 0.8882926466421514 C
atom -3.9301631393727448 -2.4882087999999989 -7.1256573533578482 C
atom -8.5094239321368530 -1.5510912000000003 -2.6308131769892062 C
atom -8.8171793162859995 1.7740605599999997 -9.3628466419099912 C
atom -3.6224077552235951 -5.8133605599999996 -0.3936238884370624 C
atom -3.6224077552235947 -2.2652394399999993 -8.4075738884370637 C
atom -8.8171793162860030 -1.7740605599999997 -1.3488966419099937 C
atom -8.0717992589611463 -5.4255877599999982 -8.6455279157315985 C
atom -4.3677878125484497 1.3862877600000016 -1.1109426146154575 C
atom -4.3677878125484506 -1.3862877599999999 -9.1248926146154599 C
atom -8.0717992589611445 -2.6530122399999998 -0.6315779157315967 C
atom -6.9977653112070088 -4.7518325199999998 -9.2366896261414322 C
atom -5.4418217603025880 0.7125325199999999 -0.5197809042056226 C
atom -5.4418217603025871 -0.7125325199999997 -8.5337309042056226 C
atom -6.9977653112070088 -3.3267674800000009 -1.2227396261414329 C
atom -3.9052839652297244 -5.6695614799999996 -10.1610621522971538 C
atom -8.5343031062798715 1.6302614799999997 0.4045916219500986 C
atom -8.5343031062798733 -1.6302614799999993 -7.6093583780499028 C
atom -3.9052839652297240 -2.4090385200000002 -2.1471121522971548 C
atom -2.6055959079984006 -5.9684696799999992 -9.8946968532864954 C
atom -9.8339911635111950 1.9291696800000009 0.1382263229394391 C
atom -9.8339911635111950 -1.9291696799999996 -7.8757236770605612 C
atom -2.6055959079983997 -2.1101303200000010 -1.8807468532864968 C
atom -1.5731101810631059 -5.1921162199999991 -10.4681175692676902 C
atom -10.8664768904464903 1.1528162199999994 0.7116470389206322 C
atom -10.8664768904464921 -1.1528162200000003 -7.3023029610793673 C
atom -1.5731101810631054 -2.8864837800000003 -2.4541675692676881 C
atom -1.8467810966363170 -4.1725968999999994 -11.2934229109353232 C
atom -10.5928059748732792 0.1332968999999997 1.5369523805882683 C
atom -10.5928059748732792 -0.1332968999999998 -6.4769976194117325 C
atom -1.8467810966363170 -3.9060030999999995 -3.2794729109353238 C
atom -2.3983523873870527 -1.9897591799999994 -13.1406472682509126 C
atom -10.0412346841225446 -2.0495408200000007 3.3841767379038554 C
atom -10.0412346841225446 2.0495408200000016 -4.6297732620961431 C
atom -2.3983523873870531 -6.0888408199999997 -5.1266972682509131 C
atom -1.5932623121189504 -2.5584926199999996 -14.0962911535268489 C
atom -10.8463247593906473 -1.4808073800000010 4.3398206231797944 C
atom -10.8463247593906456 1.4808073800000001 -3.6741293768202050 C
atom -1.5932623121189509 -5.5201073799999989 -6.0823411535268503 C
atom -0.5528152494578857 -1.8152614200000003 -14.6833423243686223 C
atom -11.8867718220517080 -2.2240385799999998 4.9268717940215669 C
atom -11.8867718220517080 2.2240385800000007 -3.0870782059784330 C
atom -0.5528152494578878 -6.2633385800000001 -6.6693923243686228 C
atom -0.3453229371051051 -0.5420740599999999 -14.2958932379224350 C
atom -12.0942641344044883 -3.4972259399999994 4.5394227075753788 C
atom -12.0942641344044883 3.4972259400000003 -3.4745272924246211 C
atom -0.3453229371051076 -7.5365259399999998 -6.2819432379224347 C
atom -1.1419540931645806 0.0460480200000008 -13.3557334546858577 C
atom -11.2976329783450140 -4.0853480199999996 3.5992629243388023 C
atom -11.2976329783450140 -3.9932519799999993 -4.4146870756611971 C
atom -1.1419540931645806 -0.0460480199999998 -5.3417834546858591 C
atom -2.1662296926326792 -0.6769866799999994 -12.7720267721546357 C
atom -10.2733573788769146 -3.3623133200000006 3.0155562418075799 C
atom -10.2733573788769146 -4.7162866799999996 -4.9983937581924200 C
atom -2.1662296926326801 0.6769866799999998 -4.7580767721546344 C
atom -7.9737753128376507 -3.2007413199999992 -11.7466589399524626 H
atom -4.4658117586719444 -0.8385586800000007 1.9901884096054052 H
atom -4.4658117586719452 0.8385586800000004 -6.0237615903945914 H
atom -7.9737753128376516 -4.8778586800000001 -3.7327089399524631 H
atom -7.2572550975186960 2.0455015200000006 -12.2457332174044744 H
atom -5.1823319739909008 -6.0848015200000001 2.4892626870574182 H
atom -5.1823319739908982 -1.9937984800000002 -5.5246873129425813 H
atom -7.2572550975186969 -2.0455015200000002 -4.2317832174044723 H
atom -9.0659710577161920 0.8837988400000005 -11.1992330125169346 H
atom -3.3736160137934057 -4.9230988399999998 1.4427624821698777 H
atom -3.3736160137934053 -3.1555011599999987 -6.5711875178301220 H
atom -9.0659710577161920 -0.8837988400000005 -3.1852830125169356 H
atom -9.5809699624766900 1.2796502399999998 -8.9216832224733018 H
atom -2.8586171090329060 -5.3189502399999986 -0.8347873078737539 H
atom -2.8586171090329056 -2.7596497600000012 -8.8487373078737530 H
atom -9.5809699624766900 -1.2796502399999994 -0.9077332224733025 H
atom -8.2972045766969007 -5.2518978600000006 -7.6599718537414860 H
atom -4.1423824948126962 1.2125978600000005 -2.0964986766055689 H
atom -4.1423824948126962 -1.2125978600000005 -10.1104486766055714 H
atom -8.2972045766969007 -2.8267021399999996 0.3539781462585135 H
atom -6.4337544333847640 -4.0950423400000000 -8.6827770682954970 H
atom -6.0058326381248310 0.0557423400000000 -1.0736934620515595 H
atom -6.0058326381248310 -0.0557423400000000 -9.0876434620515596 H
atom -6.4337544333847640 -3.9835576599999998 -0.6688270682954985 H
atom -4.6424538950873817 -6.2407184999999998 -9.7509502819255207 H
atom -7.7971331764222143 2.2014185000000004 -0.0055202484215351 H
atom -7.7971331764222143 -2.2014185000000008 -8.0194702484215359 H
atom -4.6424538950873808 -1.8378814999999995 -1.7370002819255190 H
atom -2.3834248829012408 -6.7423995600000008 -9.2694211836144955 H
atom -10.0561621886083561 2.7030995600000010 -0.4870493467325606 H
atom -10.0561621886083579 -2.7030995599999992 -8.5009993467325593 H
atom -2.3834248829012372 -1.3362004400000003 -1.2554711836144967 H
atom -0.6095397665039716 -5.4126620000000010 -10.2518804759870061 H
atom -11.8300473050056247 1.3733620000000004 0.4954099456399509 H
atom -11.8300473050056265 -1.3733620000000000 -7.5185400543600487 H
atom -0.6095397665039711 -2.6659379999999988 -2.2379304759870080 H
atom -1.0772682403927329 -3.6337542800000011 -11.6861819079280558 H
atom -11.3623188311168644 -0.4055457199999993 1.9297113775809984 H
atom -11.3623188311168644 0.4055457200000001 -6.0842386224190008 H
atom -1.0772682403927332 -4.4448457200000000 -3.6722319079280563 H
atom -1.7689092815686676 -3.5263089000000001 -14.4036276994153507 H
atom -10.6706777899409300 -0.5129911000000000 4.6471571690682953 H
atom -10.6706777899409300 0.5129911000000000 -3.3667928309317063 H
atom -1.7689092815686678 -4.5522910999999997 -6.3896776994153504 H
atom -12.3972924754664611 1.8047592400000003 -9.1238550705438772 H
atom -0.0422945960431344 -5.8440592400000009 -0.6326154598031808 H
atom -0.0422945960431325 -2.2345407599999998 -8.6465654598031811 H
atom -12.3972924754664611 -1.8047592400000003 -1.1099050705438760 H
atom -12.0191290284925714 -4.0522257599999998 -8.4329720264213268 H
atom -0.4204580430170236 0.0129257600000008 -1.3234985039257290 H
atom -0.4204580430170236 -0.0129257599999990 -9.3374485039257298 H
atom -12.0191290284925714 -4.0263742400000000 -0.4190220264213265 H
atom -1.0026307179636760 -7.0421156199999997 -13.0845791947459738 H
atom -11.4369563535459218 3.0028156199999994 3.3281086643989166 H
atom -11.4369563535459218 -3.0028156199999994 -4.6858413356010837 H
atom -1.0026307179636735 -1.0364843800000008 -5.0706291947459725 H
atom -2.7615883298751283 -0.2439737199999995 -12.0599591277370468 H
atom -9.6779987416344664 -3.7953262799999994 2.3034885973899906 H
atom -9.6779987416344664 -4.2832737199999995 -5.7104614026100107 H
atom -2.7615883298751283 0.2439737199999996 -4.0460091277370482 H
