#=======================================================
# FHI-aims file: pahs_geometry_fix/KUBWAF01.in
# Created using the Atomic Simulation Environment (ASE)
# Tue May 25 14:20:53 2021
#=======================================================
lattice_vector -0.0000000000000014 -8.8186999999999998 -0.0000000000000005 
lattice_vector -12.1291313828322060 0.0000000000000000 3.8632036120291313 
lattice_vector 0.0000000000000000 0.0000000000000000 -17.2680000000000007 
atom -2.2426763926856754 -5.8150507800000000 -2.7116648521358147 H
atom -9.8864549901465324 -3.0036492199999989 -10.6931315358350556 H
atom -9.8864549901465306 -1.4057007799999999 -2.0591315358350535 H
atom -2.2426763926856754 -7.4129992199999997 -11.3456648521358154 H
atom -1.2468747061551528 -3.6244857000000001 -2.6921078686834026 H
atom -10.8822566766770557 -5.1942142999999996 -10.7126885192874628 H
atom -10.8822566766770557 -8.0338357000000009 -2.0786885192874651 H
atom -1.2468747061551508 -0.7848642999999987 -11.3261078686834047 H
atom -1.0212728624344727 -2.4604173000000000 -0.6175510558671449 H
atom -11.1078585203977340 -6.3582826999999993 -12.7872453321037227 H
atom -11.1078585203977340 -6.8697672999999995 -4.1532453321037224 H
atom -1.0212728624344727 -1.9489326999999987 -9.2515510558671465 H
atom -1.7587240505106720 -3.4322380399999988 -15.8392550762557764 H
atom -10.3704073323215376 -5.3864619600000001 2.4344586882849066 H
atom -10.3704073323215376 -7.8415880399999995 -6.1995413117150937 H
atom -1.7587240505106703 -0.9771119600000001 -7.2052550762557761 H
atom -3.8570637797406420 -7.1466744799999997 -13.4510280513747364 H
atom -8.2720676030915641 -1.6720255199999998 0.0462316634038666 H
atom -8.2720676030915641 -2.7373244799999989 -8.5877683365961310 H
atom -3.8570637797406420 -6.0813755199999999 -4.8170280513747361 H
atom -4.7449161969639606 -0.5555780999999995 -13.4013595469742040 H
atom -7.3842151858682481 -8.2631218999999998 -0.0034368409966630 H
atom -7.3842151858682481 -4.9649280999999990 -8.6374368409966671 H
atom -4.7449161969639606 -3.8537719000000004 -4.7673595469742027 H
atom -4.8916786866962303 -1.8043060200000001 -15.4509499832686519 H
atom -7.2374526961359784 -7.0143939799999995 2.0461535952977821 H
atom -7.2374526961359784 -6.2136560199999993 -6.5878464047022183 H
atom -4.8916786866962303 -2.6050439799999987 -6.8169499832686515 H
atom -4.1833374139388289 -0.8677600799999994 -0.2217010742111499 H
atom -7.9457939688933799 -7.9509399199999997 -13.1830953137597184 H
atom -7.9457939688933790 -5.2771100799999999 -4.5490953137597172 H
atom -4.1833374139388297 -3.5415899199999994 -8.8557010742111544 H
atom -2.7848485654982755 -5.3026843099999992 -14.6887444506781133 H
atom -9.3442828173339318 -3.5160156900000006 1.2839480627072446 H
atom -9.3442828173339318 -0.8933343099999985 -7.3500519372927551 H
atom -2.7848485654982760 -7.9253656900000005 -6.0547444506781130 H
atom -0.6719538786089069 -7.9923878099999994 -0.9498417198935865 H
atom -11.4571775042233011 -0.8263121900000000 -12.4549546680772831 H
atom -11.4571775042233028 -3.5830378099999987 -3.8209546680772806 H
atom -0.6719538786089064 -5.2356621899999993 -9.5838417198935861 H
atom -10.9004503737513048 -0.2248768499999987 2.0196222861305833 H
atom -1.2286810090809033 -8.5938231500000004 -15.4244186741014495 H
atom -1.2286810090809026 -4.6342268500000010 -6.7904186741014509 H
atom -10.9004503737513048 -4.1844731500000005 -6.6143777138694215 H
atom -11.0472128634835745 -1.5847203899999986 0.0909078498361327 H
atom -1.0819185193486334 -7.2339796100000004 -13.4957042378070025 H
atom -1.0819185193486331 -5.9940703899999992 -4.8617042378070021 H
atom -11.0472128634835745 -2.8246296100000001 -8.5430921501638650 H
atom -0.9557755529671779 -1.8942567599999998 -4.8759795553721057 H
atom -11.1733558298650291 -6.9244432399999996 -8.5288168325987641 H
atom -11.1733558298650291 -6.3036067599999992 0.1051831674012362 H
atom -0.9557755529671780 -2.5150932399999992 -13.5099795553721034 H
atom -5.6837109659951732 -0.6702211999999996 -5.4111803874031494 H
atom -6.4454204168370355 -8.1484787999999995 -7.9936160005677204 H
atom -6.4454204168370337 -5.0795712000000002 0.6403839994322796 H
atom -5.6837109659951741 -3.7391288000000005 -14.0451803874031498 H
atom -7.5807071142701297 -8.2578306799999996 -4.6601973424817933 H
atom -4.5484242685620790 -0.5608693199999999 -8.7445990454890747 H
atom -4.5484242685620790 -3.8484806799999989 -0.1105990454890765 H
atom -7.5807071142701297 -4.9702193200000000 -13.2941973424817927 H
atom -7.5103581522497027 -6.9553086899999998 -2.7071447234315609 H
atom -4.6187732305825051 -1.8633913099999992 -10.6976516645393076 H
atom -4.6187732305825051 -2.5459586899999995 -2.0636516645393050 H
atom -7.5103581522497036 -6.2727413099999998 -11.3411447234315634 H
atom -5.4896448638698576 -6.8292012799999995 -1.4236456451956152 H
atom -6.6394865189623511 -1.9894987200000001 -11.9811507427752542 H
atom -6.6394865189623511 -2.4198512799999987 -3.3471507427752538 H
atom -5.4896448638698576 -6.3988487200000002 -10.0576456451956151 H
atom -3.3500660879382553 -1.3713078499999998 -5.0976591623575542 H
atom -8.7790652948939520 -7.4473921499999998 -8.3071372256133156 H
atom -8.7790652948939520 -5.7806578499999999 0.3268627743866847 H
atom -3.3500660879382558 -3.0380421499999990 -13.7316591623575537 H
atom -2.1046468775490452 -5.3277294179999997 -1.8537204692407041 C
atom -10.0244845052831622 -3.4909705819999997 -11.5510759187301648 C
atom -10.0244845052831622 -0.9183794179999991 -2.9170759187301636 C
atom -2.1046468775490457 -7.9003205820000000 -10.4877204692407062 C
atom -1.5629598699917597 -4.0781196279999996 -1.8312954225539242 C
atom -10.5661715128404499 -4.7405803720000002 -11.5735009654169438 C
atom -10.5661715128404499 -8.4874696279999995 -2.9395009654169413 C
atom -1.5629598699917577 -0.3312303719999993 -10.4652954225539272 C
atom -1.4296607160944343 -3.3699780180000003 -0.6145694702501262 C
atom -10.6994706667377741 -5.4487219819999995 -12.7902269177207426 C
atom -10.6994706667377741 -7.7793280179999993 -4.1562269177207432 C
atom -1.4296607160944326 -1.0393719819999987 -9.2485694702501267 C
atom -1.8291943038449283 -3.9321701429999991 0.5492824967301161 C
atom -10.2999370789872824 -4.8865298569999984 -13.9540788847009836 C
atom -10.2999370789872824 -8.3415201430000003 -5.3200788847009814 C
atom -1.8291943038449250 -0.4771798569999989 -8.0847175032698875 C
atom -3.9354179684737396 -7.6783539029999996 -14.2818738360410293 C
atom -8.1937134143584682 -1.1403460969999992 0.8770774480701597 C
atom -8.1937134143584700 -3.2690039029999998 -7.7569225519298408 C
atom -3.9354179684737396 -5.5496960969999991 -5.6478738360410281 C
atom -4.4323484812283738 -0.1209043770000000 -14.2651959840561950 C
atom -7.6967829016038349 -8.6977956229999993 0.8603995960853258 C
atom -7.6967829016038349 -4.5302543769999986 -7.7736004039146724 C
atom -4.4323484812283755 -4.2884456230000003 -5.6311959840561947 C
atom -4.5099749220785004 -0.8739331699999997 -15.4702984409392101 C
atom -7.6191564607537083 -7.9447668299999998 2.0655020529683403 C
atom -7.6191564607537066 -5.2832831699999998 -6.5684979470316609 C
atom -4.5099749220785013 -3.5354168299999991 -6.8362984409392071 C
atom -4.0932179677643852 -0.3397845109999986 0.6173123229514738 C
atom -8.0359134150678244 -8.4789154890000002 -14.0221087109223408 C
atom -8.0359134150678226 -4.7491345109999994 -5.3881087109223404 C
atom -4.0932179677643870 -4.0695654890000004 -8.0166876770485285 C
atom -3.1044511774359043 -7.2621994499999998 -0.6523637555011446 C
atom -9.0246802053963027 -1.5565005499999998 -12.7524326324697252 C
atom -9.0246802053963027 -2.8528494499999999 -4.1184326324697249 C
atom -3.1044511774359043 -5.9658505499999999 -9.2863637555011440 C
atom -2.8793344989705396 -5.8212238699999990 -15.5137614545404059 C
atom -9.2497968838616700 -2.9974761299999999 2.1089650665695365 C
atom -9.2497968838616682 -1.4118738699999991 -6.5250349334304660 C
atom -2.8793344989705396 -7.4068261299999998 -6.8797614545404056 C
atom -2.4110287362793876 -5.2409534100000004 0.5791883739991507 C
atom -9.7181026465528220 -3.5777465899999994 -13.9839847619700208 C
atom -9.7181026465528202 -0.8316034100000004 -5.3499847619700196 C
atom -2.4110287362793881 -7.9870965899999993 -8.0548116260008502 C
atom -3.4640799229368788 -7.0865309459999999 -15.4946706484044814 C
atom -8.6650514598953272 -1.7321690539999992 2.0898742604336120 C
atom -8.6650514598953272 -2.6771809459999996 -6.5441257395663888 C
atom -3.4640799229368788 -6.1415190539999998 -6.8606706484044819 C
atom -3.5586871477229702 -7.8340921449999996 0.5542952197693484 C
atom -8.5704442351092371 -0.9846078549999993 -13.9590916077402163 C
atom -8.5704442351092371 -3.4247421449999997 -5.3250916077402159 C
atom -3.5586871477229702 -5.3939578550000000 -8.0797047802306547 C
atom -2.5493008340436756 -5.9648804929999999 -0.6537397048237163 C
atom -9.5798305487885322 -2.8538195069999994 -12.7510566831471532 C
atom -9.5798305487885322 -1.5555304929999993 -4.1170566831471502 C
atom -2.5493008340436760 -7.2631695069999997 -9.2877397048237160 C
atom -0.7467906192409804 -8.5570491709999992 -1.7669573536073646 C
atom -11.3823407635912268 -0.2616508289999998 -11.6378390343635036 C
atom -11.3823407635912268 -4.1476991710000002 -3.0038390343635015 C
atom -0.7467906192409799 -4.6710008289999987 -10.4009573536073674 C
atom -11.7663490631716954 -0.3395199499999988 1.5915727119933423 C
atom -0.3627823196605126 -8.4791800500000001 -14.9963690999642107 C
atom -0.3627823196605119 -4.7488699499999996 -6.3623690999642095 C
atom -11.7663490631716954 -4.0698300500000002 -7.0424272880066603 C
atom -11.8548917222663697 -1.1545442040000002 0.4310449783611526 C
atom -0.2742396605658377 -7.6641557959999993 -13.8358413663320228 C
atom -0.2742396605658373 -5.5638942039999995 -5.2018413663320224 C
atom -11.8548917222663697 -3.2548057959999985 -8.2029550216388483 C
atom -0.9111403494783551 -1.3233341219999988 -4.0623682246643709 C
atom -11.2179910333538526 -7.4953658780000003 -9.3424281633064989 C
atom -11.2179910333538526 -5.7326841220000002 -0.7084281633064963 C
atom -0.9111403494783554 -3.0860158780000000 -12.6963682246643721 C
atom -5.6736437869474212 -0.1298994509999992 -4.5744713264011336 C
atom -6.4554875958847866 -8.6888005489999998 -8.8303250615697362 C
atom -6.4554875958847857 -4.5392494509999990 -0.1963250615697338 C
atom -5.6736437869474230 -4.2794505489999999 -13.2084713264011331 C
atom -6.7494977406046397 -8.2278471000000000 -4.1722305660141510 C
atom -5.3796336422275699 -0.5908528999999996 -9.2325658219567206 C
atom -5.3796336422275699 -3.8184970999999992 -0.5985658219567185 C
atom -6.7494977406046388 -5.0002028999999997 -12.8062305660141487 C
atom -6.6941889014989258 -7.4581509639999997 -2.9800506944850031 C
atom -5.4349424813332829 -1.3605490359999997 -10.4247456934858675 C
atom -5.4349424813332838 -3.0488009639999993 -1.7907456934858663 C
atom -6.6941889014989240 -5.7698990360000000 -11.6140506944850017 C
atom -5.5496840642148770 -7.4119409759999995 -2.2425388273160722 C
atom -6.5794473186173317 -1.4067590239999999 -11.1622575606547976 C
atom -6.5794473186173308 -3.0025909759999991 -2.5282575606547955 C
atom -5.5496840642148770 -5.8161090240000002 -10.8765388273160699 C
atom -3.1751640133978163 -8.0452118230000007 -1.9244232384430144 C
atom -8.9539673694343911 -0.7734881769999986 -11.4803731495278551 C
atom -8.9539673694343911 -3.6358618229999995 -2.8463731495278553 C
atom -3.1751640133978158 -5.1828381769999998 -10.5584232384430141 C
atom -3.3218052118162573 -0.8178462379999993 -4.2467140267735823 C
atom -8.8073261710159496 -8.0008537620000002 -9.1580823611972892 C
atom -8.8073261710159496 -5.2271962380000003 -0.5240823611972854 C
atom -3.3218052118162591 -3.5915037619999994 -12.8807140267735818 C
atom -4.3828616251864201 -8.1264320500000000 -2.6418078147932738 C
atom -7.7462697576457895 -0.6922679499999991 -10.7629885731775961 C
atom -7.7462697576457886 -3.7170820499999997 -2.1289885731775962 C
atom -4.3828616251864174 -5.1016179499999996 -11.2758078147932750 C
atom -2.0182874621032805 -8.6978838099999987 -2.4028927589583509 C
atom -10.1108439207289269 -0.1208161900000004 -11.0019036290125172 C
atom -10.1108439207289269 -4.2885338099999997 -2.3679036290125168 C
atom -2.0182874621032809 -4.5301661900000001 -11.0368927589583521 C
atom -4.4522402566962178 -0.1112038070000001 -3.8334780101324659 C
atom -7.6768911261359891 -8.7074961929999990 -9.5713183778384039 C
atom -7.6768911261359891 -4.5205538069999998 -0.9373183778384013 C
atom -4.4522402566962187 -4.2981461930000000 -12.4674780101324671 C
atom -2.1030700904692767 -0.6933261940000002 -3.5843036057102675 C
atom -10.0260612923629324 -8.1253738059999989 -9.8204927822606010 C
atom -10.0260612923629306 -5.1026761939999998 -1.1864927822605995 C
atom -2.1030700904692798 -3.7160238059999995 -12.2183036057102683 C
