#=======================================================
# FHI-aims file: pahs_geometry_fix/KIDJUD03.in
# Created using the Atomic Simulation Environment (ASE)
# Tue May 25 14:20:53 2021
#=======================================================
lattice_vector 6.0866302600394713 0.0000000000000000 -0.1337672888707701 
lattice_vector -0.3926641041909756 8.1338634051959833 -2.1085878252739390 
lattice_vector 0.0000000000000000 0.0000000000000000 10.6561000000000003 
atom 4.9116410739711727 1.9976768523161337 -0.2230010951701490 H
atom 0.7823250818773222 6.1361865528798498 8.6367459810254399 H
atom 0.2943190428511313 7.7344907120008601 4.8651757753578879 H
atom 5.3996471129973642 0.3993726931951228 3.5485691104974029 H
atom 1.7702265940206552 6.9422524163347719 3.2487315959082941 H
atom 3.9237395618278406 1.1916109888612114 5.1650132899469980 H
atom 3.8869385123410782 6.1524542796902413 3.8734655145930259 H
atom 1.8070276435074171 1.9814091255057416 4.5402793712622662 H
atom 4.5045548185527080 6.1687220065006336 6.1211444423932075 H
atom 1.1894113372957889 1.9651413986953497 2.2926004434620837 H
atom 3.0207934466672364 6.9219177578217819 7.7330053310663098 H
atom 2.6731727091812596 1.2119456473742014 0.6807395547889815 H
atom 2.4206196476187070 2.2701612763901990 8.9527697359824643 H
atom 3.2733465082297890 5.8637021288057838 -0.5390248501271735 H
atom 2.7613378524659740 3.8993741164509541 7.3447695883768986 H
atom 2.9326283033825216 4.2344892887450287 1.0689752974783924 H
atom 1.0520958921120140 4.5069737128190948 5.9017558395572678 H
atom 4.6418702637364815 3.6268896923768890 2.5119890462980230 H
atom 5.0415063371727795 3.5187093090877823 5.9882039840553407 H
atom 0.6524598186757166 4.6151540961082009 2.4255409017999505 H
atom 4.6542746116750120 1.9326059450745656 7.6424824473957118 H
atom 1.0396915441734840 6.2012574601214174 0.7712624384595798 H
atom 0.5429129514210633 7.8173747800998079 7.5356230769302108 C
atom 5.1510532044274324 0.3164886250961757 0.8781218089250814 C
atom 0.2237547852870014 0.9000119857849356 9.5925564771520122 C
atom 5.4702113705614943 7.2338514194110477 -1.1788115912967208 C
atom 5.3930088798853992 1.1798982255577293 -0.1851388033891251 C
atom 0.3009572759630960 6.9539651796382538 8.5988836892444169 C
atom 1.5025967336536401 7.4049879054563714 6.4714422542699515 C
atom 4.1913694221948559 0.7288754997396121 1.9423026315853396 C
atom 1.1475694906464529 7.4086481439887093 5.1257132496897437 C
atom 4.5463966652020433 0.7252152612072739 3.2880316361655471 C
atom 2.0258689915833554 6.9421710777007197 4.1637149346539752 C
atom 3.6680971642651401 1.1916923274952635 4.2500299512013173 C
atom 3.2828629140028438 6.4734978682933271 4.5325848949632670 C
atom 2.4111032418456517 1.6603655369026562 3.8811599908920247 C
atom 3.6447661094485104 6.4787035408726528 5.8632808200672804 C
atom 2.0492000463999851 1.6551598643233307 2.5504640657880104 C
atom 2.7628342298962862 6.9321664257123290 6.8187297787256975 C
atom 2.9311319259522097 1.2016969794836547 1.5950151071295930 C
atom 0.4569343506872844 1.9199984567965120 8.5354060206590567 C
atom 5.2370318051612106 6.2138649483994719 -0.1216611348037653 C
atom 1.7040865068657529 2.5251578941430930 8.3840428009824741 C
atom 3.9898796489827428 5.6087055110528903 0.0297020848728165 C
atom 1.9096758090801813 3.4862551941010502 7.4217890577888559 C
atom 3.7842903467683144 4.6476082110949326 0.9919558280664350 C
atom 0.8997909526201481 3.8542311745521167 6.5746743136593988 C
atom 4.7941752032283480 4.2796322306438670 1.8390705721958922 C
atom 5.7462824750206050 3.2676982844034344 6.5736278728698005 C
atom -0.0523163191721089 4.8661651207925489 1.8401170129854900 C
atom 5.5182786938166695 2.3170123296041276 7.5514598728870039 C
atom 0.1756874620318261 5.8168510755918552 0.8622850129682877 C
