# 
# This is the geometry file that corresponds to the current relaxation step.
# If you do not want this file to be written, set the "write_restart_geometry" flag to .false.
#  aims_uuid : 50BF255B-D448-4805-AD6C-9C27D11337DC                                
# 
lattice_vector      0.00000219    -15.53519896      0.00569395
lattice_vector     15.53449885      0.00000000     -0.00596482
lattice_vector      0.00000000      0.00000000     19.52870000
atom       6.04836002    -11.16640832      4.76031426 H
atom       9.48612555     -4.36887808     14.52081871 H
atom      11.16591304     -9.48650846      9.63989568 H
atom       4.36857609     -6.04871141     19.40557544 H
atom      10.71714798     -9.57070377      4.83568056 H
atom       4.81733587     -5.96447064     14.60107072 H
atom       9.57022140     -4.81762612      9.71661729 H
atom       5.96425834    -10.71757902     19.48447720 H
atom      11.53535079    -11.88360109      4.77142737 H
atom       3.99915678     -3.65146254     14.53568585 H
atom      11.88306651     -3.99938544      9.65059755 H
atom       3.65142054    -11.53579456     19.42087564 H
atom      11.05631486    -14.26195728      4.53887270 H
atom       4.47812470     -1.27330470     14.30100342 H
atom      14.26129837     -4.47843399      9.41620823 H
atom       1.27306014    -11.05674951     19.18799817 H
atom       8.72144523    -15.09847175      4.43324401 H
atom       6.81296546     -0.43681138     14.19295323 H
atom      15.09775541     -6.81334445      9.30993227 H
atom       0.43664981     -8.72197901     19.08060685 H
atom       6.83911032    -13.49948281      4.63774080 H
atom       8.69542578     -2.03587939     14.39708145 H
atom      13.49886746     -8.69573718      9.51557582 H
atom       2.03567148     -6.83945548     19.28357939 H
atom      10.23524951     -6.48695963      2.74147253 H
atom       5.29850450     -9.04851314     12.50861342 H
atom       6.48646539     -5.29918113      7.62444978 H
atom       9.04795898    -10.23624644     17.38996076 H
atom      12.53101468     -5.61615535      2.71084541 H
atom       3.00283377     -9.91934517     12.48022485 H
atom       5.61579952     -3.00356256      7.59444879 H
atom       9.91878672    -12.53212736     17.36094307 H
atom      13.96365254     -5.76329549      4.72052707 H
atom       1.57096974     -9.77224070     14.48993464 H
atom       5.76294436     -1.57099070      9.60396404 H
atom       9.77169528    -13.96415485     19.37080743 H
atom      13.06247325     -6.72925335      6.78211726 H
atom       2.47276563     -8.80568349     16.55135922 H
atom       6.72912123     -2.47245996     11.66539810 H
atom       8.80541753    -13.06253914      1.90375827 H
atom       9.11596137     -4.84173236      4.82632948 H
atom       6.41853157    -10.69354359     14.59390050 H
atom       4.84141971     -6.41889028      9.71070147 H
atom      10.69308318     -9.11631702     19.47386046 H
atom       4.41614833     -6.48043913      4.90740387 H
atom      11.11835021     -9.05471619     14.67005539 H
atom       6.48022515    -11.11878520      9.79044348 H
atom       9.05428117     -4.41640556      0.02267002 H
atom       3.61979070     -4.17571402      4.91080687 H
atom      11.91473242    -11.35936042     14.67458802 H
atom       4.17565175    -11.91517751      9.79561868 H
atom      11.35885069     -3.61998730     19.55413127 H
atom       4.08244151     -1.78609644      4.64130624 H
atom      11.45200818    -13.74915724     14.40722453 H
atom       1.78583505    -11.45245291      9.52792450 H
atom      13.74852932     -4.08272553     19.28493721 H
atom       6.44079604     -0.95017789      4.59195965 H
atom       9.09363937    -14.58508218     14.36027481 H
atom       0.95001190     -9.09417297      9.47922840 H
atom      14.58441026     -6.44113499     19.23735212 H
atom       8.32733385     -2.57755745      4.73177075 H
atom       7.20719429    -12.95774041     14.50050509 H
atom       2.57734966     -7.20756042      9.61790135 H
atom      12.95717519     -8.32763218     19.37871999 H
atom       4.83775741     -9.25586610      2.72838549 H
atom      10.69604436     -6.27957967     12.48936576 H
atom       9.25539926    -10.69704076      7.60946267 H
atom       6.27921019     -4.83839419     17.37261423 H
atom       2.52690832    -10.04026747      2.60585612 H
atom      13.00684486     -5.49543335     12.36472664 H
atom      10.03991659    -13.00799770      7.48630199 H
atom       5.49537772     -2.52764048     17.24863252 H
atom       1.14692407    -10.16764392      4.66800284 H
atom      14.38765240     -5.36774930     14.42673570 H
atom      10.16713347    -14.38819882      9.54858141 H
atom       5.36747692     -1.14695000     19.31048507 H
atom       2.11121009     -9.49035257      6.78054762 H
atom      13.42400584     -6.04462865     16.53930600 H
atom       9.48999201    -13.42406925     11.66123020 H
atom       6.04445419     -2.11086249      1.89430157 H
atom       4.45078475     -8.77898955      6.94552862 H
atom      11.08449118     -6.75592851     16.70646777 H
atom       8.77868202    -11.08439146     11.82676181 H
atom       6.75569453     -4.45031892      2.06090860 H
atom      13.71634908     -3.01291040      2.10088335 H
atom       1.81814956    -12.52221429     11.87324173 H
atom       3.01286579     -1.81816837      6.98675046 H
atom      12.52162839    -13.71703010     16.75173880 H
atom       2.89170652     -1.38878766      1.95484227 H
atom      12.64276231    -14.14647780     11.72018831 H
atom       1.38862367    -12.64342674      6.84176808 H
atom      14.14584201     -2.89180890     16.59761263 H
atom       3.70812124     -3.73604548      2.10071743 H
atom      11.82636654    -11.79929554     11.86492688 H
atom       3.73574901    -11.82698096      6.98583610 H
atom      11.79875516     -3.70824817     16.74415957 H
atom       3.19144221     -6.12583481      2.34115463 H
atom      12.34311566     -9.40930218     12.10318196 H
atom       6.12575206    -12.34374219      7.22445735 H
atom       9.40889680     -3.19148549     16.98425333 H
atom       0.85518553     -6.90279917      2.44696395 H
atom      14.67941024     -8.63232808     12.20666403 H
atom       6.90262499    -14.67992871      7.32968903 H
atom       8.63196535     -0.85516038     17.08829863 H
atom      14.55432603     -5.32488934      2.31436826 H
atom       0.98016706    -10.21015966     12.08561908 H
atom       5.32477670     -0.98014630      7.19846849 H
atom      10.20971966    -14.55503683     16.96588062 H
atom       2.82274686    -14.62440689     -0.06776953 H
atom      12.71096243     -0.91105797      9.68787407 H
atom      14.62366542    -12.71213629      4.80928365 H
atom       0.91095633     -2.82353799     14.57514805 H
atom       5.16261272    -13.85419271      0.06530210 H
atom      10.37119055     -1.68121221      9.82314651 H
atom      13.85351737    -10.37218096      4.94293411 H
atom       1.68105404     -5.16327211     14.70983682 H
atom       6.12615003    -13.24339583      2.24646846 H
atom       9.40828854     -2.29163832     12.00428750 H
atom      13.24287109     -9.40879325      7.12417062 H
atom       2.29157564     -6.12642891     16.89095646 H
atom       4.73633521    -13.44698879      4.30909735 H
atom      10.79878964     -2.08770742     14.06709717 H
atom      13.44660715    -10.79874090      9.18700797 H
atom       2.08769811     -4.73605839     18.95371243 H
atom       2.41635954    -14.22701067      4.11004349 H
atom      13.11881633     -1.30794726     13.86561947 H
atom      14.22645085    -13.11888939      8.98722270 H
atom       1.30799895     -2.41604329     18.75282157 H
atom       1.25274243    -12.27337141      2.06044142 H
atom      14.28174496     -3.26177615     11.81652894 H
atom      12.27278449    -14.28245983      6.93913514 H
atom       3.26170676     -1.25274406     16.70219503 H
atom      12.09192991    -13.84854186      1.98954842 H
atom       3.44256191     -1.68669483     11.75266657 H
atom      13.84795300     -3.44266607      6.86717347 H
atom       1.68655168    -12.09254516     16.63939581 H
atom      11.30115580    -11.52254499      2.08652441 H
atom       4.23332893     -4.01276021     11.85079169 H
atom      11.52203263     -4.23347774      6.96591937 H
atom       4.01246869    -11.30174515     16.73573856 H
atom      11.82264213     -9.13149629      2.28895450 H
atom       3.71190840     -6.40365067     12.05541728 H
atom       9.13108296     -3.71197137      7.17020217 H
atom       6.40353269    -11.82324026     16.93853591 H
atom      14.14961319     -8.36943832      2.35998147 H
atom       1.38495793     -7.16569550     12.12878878 H
atom       8.36907916     -1.38497223      7.24182305 H
atom       7.16550111    -14.15012506     17.01130309 H
atom       0.46398175     -9.93881677      2.21459008 H
atom      15.07048847     -5.59626604     11.97183753 H
atom       9.93835861    -15.07124653      7.09503029 H
atom       5.59610844     -0.46396311     16.85575622 H
atom      12.02588560     -0.39846961      0.06028874 H
atom       3.50786857    -15.13709304      9.83316380 H
atom       0.39831166     -3.50869668      4.94784558 H
atom      15.13626034    -12.02704662     14.70993049 H
atom       9.66755292     -1.23716598      0.25884501 H
atom       5.86626462    -14.29825441     10.02942119 H
atom       1.23695461     -5.86690312      5.14573351 H
atom      14.29750064     -9.66846994     14.90685149 H
atom       8.88417271     -2.15044645      2.43368721 H
atom       6.65020287    -13.38442888     12.20418831 H
atom       2.15043942     -6.65054903      7.32047421 H
atom      13.38392803     -8.88470198     17.08179749 H
atom      10.43221368     -2.27323318      4.33113714 H
atom       5.10303324    -13.26167565     14.10174903 H
atom       2.27323379     -5.10259509      9.21775044 H
atom      13.26118708    -10.43205601     18.97950904 H
atom      12.71891233     -1.40766078      4.14923232 H
atom       2.81626353    -14.12728858     13.92206456 H
atom       1.40781141     -2.81600338      9.03648191 H
atom      14.12681397    -12.71899850     18.79919382 H
atom      10.73258069     -7.51058332      6.88159023 H
atom       4.80261223     -8.02429541     16.64859205 H
atom       7.51037437     -4.80218324     11.76425570 H
atom       8.02407347    -10.73247621      2.00160549 H
atom       6.22933523     -8.47134399      4.88679376 C
  constrain_relaxation .true.
atom       9.30516581     -7.06385497     14.64944685 C
  constrain_relaxation .true.
atom       8.47096354     -9.30558417      9.76841380 C
  constrain_relaxation .true.
atom       7.06353751     -6.22961478      0.00347681 C
  constrain_relaxation .true.
atom       6.47167322     -7.10735352      4.93306966 C
  constrain_relaxation .true.
atom       9.06282782     -8.42784543     14.69690871 C
  constrain_relaxation .true.
atom       7.10703450     -9.06323507      9.81571756 C
  constrain_relaxation .true.
atom       8.42746654     -6.47196389      0.04991080 C
  constrain_relaxation .true.
atom       7.88531256     -6.66615387      4.90893071 C
  constrain_relaxation .true.
atom       7.64918848     -8.86904508     14.67417878 C
  constrain_relaxation .true.
atom       6.66585454     -7.64953197      9.79193438 C
  constrain_relaxation .true.
atom       8.86864651     -7.88566699      0.02682511 C
  constrain_relaxation .true.
atom       8.95408621     -7.59360525      4.88933156 C
  constrain_relaxation .true.
atom       6.58041483     -7.94159371     14.65472053 C
  constrain_relaxation .true.
atom       7.59326397     -6.58071028      9.77165783 C
  constrain_relaxation .true.
atom       7.94123707     -8.95448868      0.00804426 C
  constrain_relaxation .true.
atom       8.65893092     -8.94516756      4.88212878 C
  constrain_relaxation .true.
atom       6.87557012     -6.59003140     14.64630034 C
  constrain_relaxation .true.
atom       8.94476541     -6.87587906      9.76343560 C
  constrain_relaxation .true.
atom       6.58973563     -8.65931990      0.00064353 C
  constrain_relaxation .true.
atom       7.28412784     -9.40967001      4.88282692 C
  constrain_relaxation .true.
atom       8.25037320     -6.12552895     14.64560221 C
  constrain_relaxation .true.
atom       9.40924712     -8.25074417      9.76376116 C
  constrain_relaxation .true.
atom       6.12525392     -7.28445479      0.00031796 C
  constrain_relaxation .true.
atom       7.07907265    -10.81094495      4.79944584 C
  constrain_relaxation .true.
atom       8.45542839     -4.72425400     14.56103647 C
  constrain_relaxation .true.
atom      10.81045894     -8.45580879      9.67932489 C
  constrain_relaxation .true.
atom       4.72404210     -7.07939016     19.44550742 C
  constrain_relaxation .true.
atom       8.07328070    -11.70887945      4.77986450 C
  constrain_relaxation .true.
atom       7.46122034     -3.82631950     14.54156041 C
  constrain_relaxation .true.
atom      11.70835284     -7.46155606      9.65908701 C
  constrain_relaxation .true.
atom       3.82614820     -8.07364290     19.42668790 C
  constrain_relaxation .true.
atom       9.45895794    -11.27234036      4.80260688 C
  constrain_relaxation .true.
atom       6.07554310     -4.26285859     14.56568691 C
  constrain_relaxation .true.
atom      11.27183322     -6.07581631      9.68218116 C
  constrain_relaxation .true.
atom       4.26266782     -9.45938264     19.45046263 C
  constrain_relaxation .true.
atom       9.68420798     -9.92233157      4.84303586 C
  constrain_relaxation .true.
atom       5.85029306     -5.61286738     14.60727847 C
  constrain_relaxation .true.
atom       9.92188524     -5.85055593      9.72362721 C
  constrain_relaxation .true.
atom       5.61261580     -9.68464303     19.49103712 C
  constrain_relaxation .true.
atom      10.50598330    -12.23552270      4.72249021 C
  constrain_relaxation .true.
atom       5.02851774     -3.29967626     14.48566824 C
  constrain_relaxation .true.
atom      12.23497201     -5.02874390      9.60135990 C
  constrain_relaxation .true.
atom       3.29952904    -10.50645505     19.37114855 C
  constrain_relaxation .true.
atom      10.23412975    -13.54824701      4.61176214 C
  constrain_relaxation .true.
atom       5.30037129     -1.98695195     14.37376913 C
  constrain_relaxation .true.
atom      13.54763720     -5.30060988      9.48964193 C
  constrain_relaxation .true.
atom       1.98686384    -10.23458907     19.26023934 C
  constrain_relaxation .true.
atom       8.91369742    -14.03294522      4.54604922 C
  constrain_relaxation .true.
atom       6.62080362     -1.50225374     14.30668689 C
  constrain_relaxation .true.
atom      14.03231375     -6.62110180      9.42354223 C
  constrain_relaxation .true.
atom       1.50218729     -8.91409716     19.19354388 C
  constrain_relaxation .true.
atom       7.86356517    -13.13190368      4.66134152 C
  constrain_relaxation .true.
atom       7.67093587     -2.40329528     14.42183325 C
  constrain_relaxation .true.
atom      13.13131296     -7.67128124      9.53949243 C
  constrain_relaxation .true.
atom       2.40318808     -7.86391771     19.30803234 C
  constrain_relaxation .true.
atom      10.31024788     -7.04676625      4.81830708 C
  constrain_relaxation .true.
atom       5.22425316     -8.48843271     14.58513836 C
  constrain_relaxation .true.
atom       7.04644942     -5.22448741      9.70106739 C
  constrain_relaxation .true.
atom       8.48805163    -10.31071155     19.46672806 C
  constrain_relaxation .true.
atom      10.84618802     -6.53099764      3.64228452 C
  constrain_relaxation .true.
atom       4.68831302     -9.00420132     13.40990545 C
  constrain_relaxation .true.
atom       6.53070398     -4.68852305      8.52544124 C
  constrain_relaxation .true.
atom       9.00379706    -10.84667591     18.29109873 C
  constrain_relaxation .true.
atom      12.14797896     -6.04785295      3.63574898 C
  constrain_relaxation .true.
atom       3.38652209     -9.48734600     13.40472377 C
  constrain_relaxation .true.
atom       6.04758088     -3.38667337      8.51929099 C
  constrain_relaxation .true.
atom       9.48692016    -12.14852558     18.28553176 C
  constrain_relaxation .true.
atom      12.93713151     -6.13174303      4.74861261 C
  constrain_relaxation .true.
atom       2.59736953     -9.40345593     14.51813194 C
  constrain_relaxation .true.
atom       6.13146706     -2.59748527      9.63210542 C
  constrain_relaxation .true.
atom       9.40303398    -12.93771369     19.39898912 C
  constrain_relaxation .true.
atom      12.43847417     -6.66615387      5.88947603 C
  constrain_relaxation .true.
atom       3.09602687     -8.86904508     15.65822068 C
  constrain_relaxation .true.
atom       6.66585389     -3.09616515     10.77255909 C
  constrain_relaxation .true.
atom       8.86864715    -12.43903380      1.01078762 C
  constrain_relaxation .true.
atom      11.13357633     -7.10113944      5.95458122 C
  constrain_relaxation .true.
atom       4.40092471     -8.43405951     15.72200491 C
  constrain_relaxation .true.
atom       7.10082005     -4.40112186     10.83731508 C
  constrain_relaxation .true.
atom       8.43368100    -11.13407709      1.07492105 C
  constrain_relaxation .true.
atom       8.09658154     -5.22138037      4.85754543 C
  constrain_relaxation .true.
atom       7.43791950    -10.31381859     14.62401482 C
  constrain_relaxation .true.
atom       5.22114611     -7.43825326      9.74163705 C
  constrain_relaxation .true.
atom      10.31335493     -8.09694570     19.50427320 C
  constrain_relaxation .true.
atom       7.04178894     -4.33432051      4.82833227 C
  constrain_relaxation .true.
atom       8.49271210    -11.20087845     14.59464188 C
  constrain_relaxation .true.
atom       4.33412638     -8.49309327      9.71307121 C
  constrain_relaxation .true.
atom      11.20037467     -7.04210569     19.47425294 C
  constrain_relaxation .true.
atom       5.69184105     -4.78794832      4.86026279 C
  constrain_relaxation .true.
atom       9.84265999    -10.74725064     14.62520319 C
  constrain_relaxation .true.
atom       4.78773393     -9.84310206      9.74463776 C
  constrain_relaxation .true.
atom      10.74676711     -5.69209690     19.50517823 C
  constrain_relaxation .true.
atom       5.45105651     -6.13640359      4.89404827 C
  constrain_relaxation .true.
atom      10.08344453     -9.39879537     14.65781529 C
  constrain_relaxation .true.
atom       6.13612847    -10.08389764      9.77740706 C
  constrain_relaxation .true.
atom       9.39837257     -5.45130131      0.01010651 C
  constrain_relaxation .true.
atom       4.64792259     -3.82010542      4.85054455 C
  constrain_relaxation .true.
atom      10.88657845    -11.71509353     14.61539274 C
  constrain_relaxation .true.
atom       3.81993480    -10.88706743      9.73562765 C
  constrain_relaxation .true.
atom      11.71456624     -4.64813153     19.49465964 C
  constrain_relaxation .true.
atom       4.90268819     -2.50116703      4.70154519 C
  constrain_relaxation .true.
atom      10.63181285    -13.03403192     14.46755586 C
  constrain_relaxation .true.
atom       2.50105581    -10.63229017      9.58762256 C
  constrain_relaxation .true.
atom      13.03344523     -4.90290879     19.34582849 C
  constrain_relaxation .true.
atom       6.24952917     -2.01957586      4.67546422 C
  constrain_relaxation .true.
atom       9.28497187    -13.51562309     14.44286221 C
  constrain_relaxation .true.
atom       2.01948616     -9.28538842      9.56192650 C
  constrain_relaxation .true.
atom      13.51501488     -6.24981054     19.32074993 C
  constrain_relaxation .true.
atom       7.29655452     -2.92217092      4.73983772 C
  constrain_relaxation .true.
atom       8.23794652    -12.61302803     14.50737813 C
  constrain_relaxation .true.
atom       2.92204039     -8.23831601      9.62564088 C
  constrain_relaxation .true.
atom      12.61246065     -7.29688295     19.38592497 C
  constrain_relaxation .true.
atom       4.80171486     -8.98400556      4.81136789 C
  constrain_relaxation .true.
atom      10.73278618     -6.55119340     14.57254885 C
  constrain_relaxation .true.
atom       8.98360220    -10.73326896      9.69257830 C
  constrain_relaxation .true.
atom       6.55089884     -4.80193000     19.45568844 C
  constrain_relaxation .true.
atom       4.25334710     -9.31801233      3.64779035 C
  constrain_relaxation .true.
atom      11.28115394     -6.21718662     13.40830536 C
  constrain_relaxation .true.
atom       9.31759400    -11.28166148      8.52874054 C
  constrain_relaxation .true.
atom       6.21690704     -4.25353747     18.29170517 C
  constrain_relaxation .true.
atom       2.92825441     -9.75144439      3.57620182 C
  constrain_relaxation .true.
atom      12.60624663     -5.78375457     13.33538151 C
  constrain_relaxation .true.
atom       9.75100671    -12.60681395      8.45680362 C
  constrain_relaxation .true.
atom       5.78349434     -2.92838500     18.21912971 C
  constrain_relaxation .true.
atom       2.18259847     -9.82601334      4.71308580 C
  constrain_relaxation .true.
atom      13.35190257     -5.70918562     14.47163820 C
  constrain_relaxation .true.
atom       9.82557240    -13.35250350      9.59361864 C
  constrain_relaxation .true.
atom       5.70892864     -2.18269545     19.35545537 C
  constrain_relaxation .true.
atom       2.71543173     -9.45161505      5.87079590 C
  constrain_relaxation .true.
atom      12.81906931     -6.08358391     15.63003193 C
  constrain_relaxation .true.
atom       9.45119091    -12.81964618     10.75161900 C
  constrain_relaxation .true.
atom       6.08331013     -2.71555278      0.98485883 C
  constrain_relaxation .true.
atom       4.02343648     -9.06168155      5.98537007 C
  constrain_relaxation .true.
atom      11.51106456     -6.47351741     15.74589642 C
  constrain_relaxation .true.
atom       9.06127480    -11.51158243     10.86650862 C
  constrain_relaxation .true.
atom       6.47322624     -4.02361653      1.10040787 C
  constrain_relaxation .true.
atom      13.91269722     -0.34954198      2.04920526 C
  constrain_relaxation .true.
atom       1.62180382    -15.18565698     11.82371235 C
  constrain_relaxation .true.
atom       0.34952645     -1.62187477      6.93705448 C
  constrain_relaxation .true.
atom      15.18497459    -13.91332419     16.70021313 C
  constrain_relaxation .true.
atom      14.17678569    -14.46793079      2.01912686 C
  constrain_relaxation .true.
atom       1.35771535     -1.06726817     11.78348743 C
  constrain_relaxation .true.
atom      14.46727897     -1.35777639      6.89638519 C
  constrain_relaxation .true.
atom       1.06722207    -14.17742257     16.67057909 C
  constrain_relaxation .true.
atom       0.00776922    -13.97546498      2.03024548 C
  constrain_relaxation .true.
atom      15.52673182     -1.55973398     11.78408603 C
  constrain_relaxation .true.
atom      13.97483736    -15.52743136      6.90762634 C
  constrain_relaxation .true.
atom       1.55966369     -0.00776760     16.67105517 C
  constrain_relaxation .true.
atom       1.03304627    -14.92621916      2.00481296 C
  constrain_relaxation .true.
atom      14.50145477     -0.60897980     11.75874392 C
  constrain_relaxation .true.
atom      14.92554854    -14.50210823      6.88149818 C
  constrain_relaxation .true.
atom       0.60895250     -1.03309073     16.64640871 C
  constrain_relaxation .true.
atom       0.80468715     -0.79074163      2.02901277 C
  constrain_relaxation .true.
atom      14.72981389    -14.74445733     11.79313021 C
  constrain_relaxation .true.
atom       0.79070806    -14.73047565      6.91630232 C
  constrain_relaxation .true.
atom      14.74379298     -0.80472331     16.67019067 C
  constrain_relaxation .true.
atom      14.97681052     -1.26301168      2.06475444 C
  constrain_relaxation .true.
atom       0.55769052    -14.27218728     11.83940909 C
  constrain_relaxation .true.
atom       1.26295484     -0.55771364      6.95193667 C
  constrain_relaxation .true.
atom      14.27154621    -14.97748531     16.71657686 C
  constrain_relaxation .true.
atom      14.73757943     -2.63787678      2.07902030 C
  constrain_relaxation .true.
atom       0.79692161    -12.89732217     11.85248341 C
  constrain_relaxation .true.
atom       2.63775802     -0.79695571      6.96516656 C
  constrain_relaxation .true.
atom      12.89674302    -14.73824325     16.73068715 C
  constrain_relaxation .true.
atom       0.27340768     -3.58552392      2.15327192 C
  constrain_relaxation .true.
atom      15.26109336    -11.94967504     11.91493269 C
  constrain_relaxation .true.
atom       3.58536448    -15.26177945      7.03845479 C
  constrain_relaxation .true.
atom      11.94913656     -0.27341950     16.79409981 C
  constrain_relaxation .true.
atom       1.62335557     -3.10859331      2.08618120 C
  constrain_relaxation .true.
atom      13.91114547    -12.42660565     11.84922825 C
  constrain_relaxation .true.
atom       3.10845518    -13.91177067      6.97174553 C
  constrain_relaxation .true.
atom      12.42604586     -1.62342829     16.72801392 C
  constrain_relaxation .true.
atom       1.86258666     -1.74149580      2.00552060 C
  constrain_relaxation .true.
atom      13.67191438    -13.79370315     11.76975351 C
  constrain_relaxation .true.
atom       1.74141925    -13.67252860      6.89211508 C
  constrain_relaxation .true.
atom      13.79308180     -1.86267035     16.64750903 C
  constrain_relaxation .true.
atom       2.67659473     -4.07954325      2.15838884 C
  constrain_relaxation .true.
atom      12.85790631    -11.45565571     11.92153299 C
  constrain_relaxation .true.
atom       4.07936121    -12.85848418      7.04324287 C
  constrain_relaxation .true.
atom      11.45513983     -2.67671478     16.80102896 C
  constrain_relaxation .true.
atom       2.38765323     -5.39226756      2.27615313 C
  constrain_relaxation .true.
atom      13.14684781    -10.14293140     12.03811310 C
  constrain_relaxation .true.
atom       5.39202640    -13.14743888      7.16001695 C
  constrain_relaxation .true.
atom      10.14247464     -2.38776008     16.91859928 C
  constrain_relaxation .true.
atom       1.04236569     -5.83191369      2.34518127 C
  constrain_relaxation .true.
atom      14.49213535     -9.70328527     12.10578586 C
  constrain_relaxation .true.
atom       5.83165291    -14.49278711      7.22869169 C
  constrain_relaxation .true.
atom       9.70284813     -1.04241185     16.98662544 C
  constrain_relaxation .true.
atom       0.05281800     -4.98213831      2.27885219 C
  constrain_relaxation .true.
atom      15.48168304    -10.55306065     12.03931978 C
  constrain_relaxation .true.
atom       4.98191596    -15.48237928      7.16298309 C
  constrain_relaxation .true.
atom      10.55258508     -0.05281968     16.91953888 C
  constrain_relaxation .true.
atom       2.48707530    -14.45860967      1.99236605 C
  constrain_relaxation .true.
atom      13.04742574     -1.07658929     11.74775640 C
  constrain_relaxation .true.
atom      14.45795992    -13.04801360      6.86942755 C
  constrain_relaxation .true.
atom       1.07654112     -2.48718535     16.63504490 C
  constrain_relaxation .true.
atom       3.23739158    -14.36539848      0.90820094 C
  constrain_relaxation .true.
atom      12.29710946     -1.16980048     10.66423581 C
  constrain_relaxation .true.
atom      14.36475282    -12.29766349      5.78534547 C
  constrain_relaxation .true.
atom       1.16974822     -3.23753546     15.55144128 C
  constrain_relaxation .true.
atom       4.57025152    -13.92885938      0.97587960 C
  constrain_relaxation .true.
atom      10.96424952     -1.60633957     10.73325804 C
  constrain_relaxation .true.
atom      13.92823322    -10.96474342      5.85337499 C
  constrain_relaxation .true.
atom       1.60626782     -4.57045553     15.62011266 C
  constrain_relaxation .true.
atom       5.09531754    -13.59795965      2.18633611 C
  constrain_relaxation .true.
atom      10.43918350     -1.93723931     11.94436034 C
  constrain_relaxation .true.
atom      13.59734832    -10.43965370      7.06408899 C
  constrain_relaxation .true.
atom       1.93715272     -5.09554526     16.83095746 C
  constrain_relaxation .true.
atom       4.34034091    -13.70670604      3.32909481 C
  constrain_relaxation .true.
atom      11.19416013     -1.82849292     13.08645954 C
  constrain_relaxation .true.
atom      13.70608992    -11.19466437      8.20675291 C
  constrain_relaxation .true.
atom       1.82841113     -4.34053459     17.97315144 C
  constrain_relaxation .true.
atom       3.03078272    -14.14169161      3.21258487 C
  constrain_relaxation .true.
atom      12.50371832     -1.39350735     12.96862507 C
  constrain_relaxation .true.
atom      14.14105607    -12.50428164      8.08989369 C
  constrain_relaxation .true.
atom       1.39344497     -3.03091732     17.85566625 C
  constrain_relaxation .true.
atom       0.22214511    -12.63322379      2.05701139 C
  constrain_relaxation .true.
atom      15.31235593     -2.90197517     11.81200048 C
  constrain_relaxation .true.
atom      12.63265662    -15.31304561      6.93540330 C
  constrain_relaxation .true.
atom       2.90184442     -0.22215335     16.69795857 C
  constrain_relaxation .true.
atom      14.74845486    -11.69023721      2.11357991 C
  constrain_relaxation .true.
atom       0.78604618     -3.84496174     11.88041564 C
  constrain_relaxation .true.
atom      11.68971050     -0.78608107      6.99293280 C
  constrain_relaxation .true.
atom       3.84479054    -14.74911789     16.76541275 C
  constrain_relaxation .true.
atom      13.39850697    -12.15007910      2.09473809 C
  constrain_relaxation .true.
atom       2.13599407     -3.38511985     11.86020006 C
  constrain_relaxation .true.
atom      12.14953185     -2.13608986      6.97372234 C
  constrain_relaxation .true.
atom       3.38496919    -13.39910910     16.74556581 C
  constrain_relaxation .true.
atom      13.12820688    -13.51562309      2.00746323 C