#=======================================================
# FHI-aims file: pahs_geometry_fix/PUJQIV.in
# Created using the Atomic Simulation Environment (ASE)
# Tue May 25 14:20:53 2021
#=======================================================
lattice_vector 6.0277723373322747 0.0000000000000000 -0.7592402842920077 
lattice_vector -0.2043662034140552 7.5554141727485948 -1.0618290319687957 
lattice_vector 0.0000000000000000 0.0000000000000000 14.5662000000000003 
atom 2.8321816593905269 0.6338992490936072 6.8176402218329866 H
atom 3.6161095523233819 0.4661690544585883 8.9352561575837370 H
atom 3.2666711281686154 0.7494970859366605 11.4234802130042628 H
atom 1.9349999796305346 1.4899276748660228 13.1262423937332624 H
atom 5.8920442607198948 2.4328433636250475 11.9429503347118278 H
atom 5.1338211012576451 2.6307952149510609 9.8075500855823172 H
atom 5.4486155226701918 2.2688908760764033 7.3757857778284457 H
atom 4.6769273101277493 2.3852442543367314 5.2188684269833585 H
atom 3.3617483080725079 2.5605298631444988 2.9937419512467649 H
atom 3.0472530004460441 2.3096901126092457 0.8452034422608924 H
atom 4.3777706136645556 1.3667744238502209 -0.6257963760986217 H
atom 0.2881867662587422 0.4435028119403425 0.4155039496656897 H
atom 1.4521405200171542 0.1987073927432881 2.2283280957174134 H
atom 1.9680757220560554 0.4676801372931380 4.7654769855027777 H
atom 2.2752999511125558 4.4637386932598702 6.8667036349067629 H
atom 1.9976147218518248 4.2559648035092836 9.3277281266476280 H
atom 2.7871798238760843 4.5929362756138712 11.4389888341531289 H
atom 4.8370160885478182 5.6257613930286041 11.7764594994875402 H
atom 0.1314380943728384 6.1939285388192982 10.7564672014910965 H
atom 0.4491215147725613 6.3269038282596739 8.2574730033756829 H
atom 5.6374101257609048 6.0972192374081162 5.4171448535416946 H
atom 4.7585503914686749 6.1644624235455785 3.3813024965216600 H
atom 4.2504290016538757 6.2974377129859542 0.8552284173542504 H
atom 3.0887154283486264 5.9468664953704193 -0.9566613083244605 H
atom 1.1666165364784689 4.9827956469276984 13.3757208960379348 H
atom 5.8434156318165353 4.1637887506017508 -0.4322749044269362 H
atom 0.1059577367179497 4.0383688753341236 2.4992083842634543 H
atom 1.4151884454577845 4.3504074806686406 4.7233969390969097 H
atom 2.2970469740052430 0.9187383634062292 7.5228277122033136 C
atom 2.7687052957347600 0.8190068963259477 8.7872763413073827 C
atom 1.9891999728453922 1.2466433385035183 9.8828667703167508 C
atom 2.4373194305951391 1.1257567117395406 11.2363528218475022 C
atom 1.6399452721410215 1.5677484408453333 12.2476436125205765 C
atom 0.3895272549655842 2.1344045038014778 11.9958352693743482 C
atom -0.0596547009092392 2.2500023406445315 10.7204452062228341 C
atom 0.7075805958582171 1.8080106115387389 9.6226401769712204 C
atom 0.2555585681539678 1.8948978745253477 8.3007589083117637 C
atom 1.0030657091709587 1.4468618140813558 7.2398110952238879 C
atom 0.5093094082620797 1.4498839797504552 5.8566011028946159 C
atom 5.2983006315755974 1.9651632263319094 4.6694047043904714 C
atom 5.1394033906009957 1.7558782537467734 3.3080798483371789 C
atom 4.0501116489461086 2.1374266694705772 2.5338689331110245 C
atom 3.8477324945286728 1.9757408061737576 1.1799089561463725 C
atom 4.6952502862588936 1.3735742966056945 0.2479933747904177 C
atom 5.9274726880767945 0.7887852396349534 0.4260462724946753 C
atom 0.6402997079534394 0.6406991218490808 2.3295969430727883 C
atom 0.3451514896773161 1.0562469013502536 3.6150013237046581 C
atom 1.1398884995766865 0.8900277895497845 4.7507330011372888 C
atom 3.1053836566301456 4.8626645615809956 6.9975056623600755 C
atom 3.5974024325446519 5.0130173036186925 8.3020486492266627 C
atom 2.8333482252967697 4.6465797162403861 9.4459052697802441 C
atom 3.2990999514822676 4.8543536059909718 10.7076191211694667 C
atom 4.5413290826237800 5.4595422812281349 10.9097629643485945 C
atom 5.3251013303782946 5.8101134988436698 9.8501905758524142 C
atom 4.8711089209388510 5.5910064878339600 8.5172525314709908 C
atom 5.6244663095657570 5.9740659863923140 7.3854601755303753 C
atom 5.1201467495324895 5.8327797413619153 6.1437961343940088 C
atom 3.8290616983290580 5.2955897936794898 5.9030590241446381 C
atom 3.2871856079559039 5.2502573086429987 4.5357837479511609 C
atom 3.9258819688095872 5.7496701854616807 3.3944020701776276 C
atom 3.1222787638048701 5.5305631744519710 2.2817509822851401 C
atom 3.4350879471868296 5.8660235637220088 0.9763280220845322 C
atom 2.6978515477537921 5.6446499284604750 -0.1676620802255777 C
atom 1.4723775594347610 5.0439945017269618 -0.3143040936199049 C
atom 0.6163546146443299 4.5120933439654607 0.6479180472824643 C
atom 0.7981280754326793 4.4327614951516008 2.0202308916462348 C
atom 1.8792121434947127 4.8671978100846447 2.7654152187658880 C
atom 2.0396536891674875 4.7296892721406207 4.1473326397561285 C
