#=======================================================
# FHI-aims file: pahs_geometry_fix/BEANTR.in
# Created using the Atomic Simulation Environment (ASE)
# Tue May 25 14:20:52 2021
#=======================================================
lattice_vector -0.0000000000000010 -6.5000000000000000 -0.0000000000000004 
lattice_vector -7.8168765151334396 0.0000000000000000 1.4487724276625729 
lattice_vector 0.0000000000000000 0.0000000000000000 -12.1199999999999992 
atom -6.8866682098325604 -0.3464499999999994 -6.3580194912292747 C
atom -0.9302083053008798 -3.5964499999999995 -4.3132080811081552 C
atom -6.3433952920307872 -6.4525500000000005 -5.0152171749518226 C
atom -1.4734812231026539 -3.2025500000000000 -5.6560103973856046 C
atom -6.5294369530909613 -0.8735999999999990 -3.9287203911734547 C
atom -1.2874395620424788 -4.1236000000000006 -6.7425071811639752 C
atom -5.2466875169575653 -4.7989499999999996 -3.3495759465528829 C
atom -2.5701889981758761 -1.5489499999999989 -7.3216516257845461 C
atom -5.6344045921081847 -5.1480000000000006 -4.8630128341408190 C
atom -2.1824719230252576 -1.8980000000000001 -5.8082147381966100 C
atom -5.4522713693055751 -4.2971500000000002 -5.8227372317053563 C
atom -2.3646051458278654 -1.0471500000000002 -4.8484903406320718 C
atom -6.1432832532433705 -0.4563000000000003 -2.7204177490999837 C
atom -1.6735932618900697 -3.7062999999999997 -7.9508098232374431 C
atom -5.5710878923356031 -5.7732999999999999 -2.3501518908048844 C
atom -2.2457886227978383 -2.5232999999999999 -8.3210756815325428 C
atom -5.2568494564272399 -5.6504499999999993 -0.9043005423969216 C
atom -2.5600270587062020 -2.4004499999999989 -9.7669270299405060 C
atom -4.5752178243076020 -4.3939999999999992 -0.6537014980890978 C
atom -3.2416586908258371 -1.1439999999999997 -10.0175260742483303 C
atom -4.2899018315052331 -3.4631999999999996 -1.6749696916987811 C
atom -3.5269746836282083 -0.2132000000000003 -8.9962578806386464 C
atom -4.6189923327923497 -3.6920000000000002 -3.0138363724941861 C
atom -3.1978841823410904 -0.4419999999999989 -7.6573911998432420 C
atom -5.9806922217285958 -4.5987499999999999 -7.0737562155953659 C
atom -1.8361842934048451 -1.3487499999999994 -3.5974713567420609 C
atom -5.7563478657442655 -3.4931000000000001 -8.1297799842692822 C
atom -2.0605286493891741 -0.2430999999999999 -2.5414475880681455 C
atom -6.2918039070309062 -3.8070499999999994 -9.3564670729743948 C
atom -1.5250726081025345 -0.5570500000000000 -1.3147604993630322 C
atom -6.9124639023325010 -4.9881000000000002 -9.5577665422179869 C
atom -0.9044126128009403 -1.7380999999999998 -1.1134610301194403 C
atom -7.1125759411199176 -5.8578000000000001 -8.6674299680698237 C
atom -0.7043005740135239 -2.6078000000000001 -2.0037976042676040 C
atom -6.6146409071059180 -5.9481500000000000 -7.4083367717119311 C
atom -1.2022356080275247 -2.6981500000000000 -3.2628908006254957 C
atom -7.3426266825585644 -1.0691157415530541 -6.5215924019906248 H
atom -6.8702568204903782 -1.6707687655949546 -4.0012722839513852 H
atom -6.2839898556545650 -1.0354124678864385 -2.0865956908088763 H
atom -7.6600189015261604 -6.4690047278994651 -8.9566271079156188 H
atom -7.2147001247258702 -5.2118586614904991 -10.3422952716354359 H
atom -5.3480958220501673 -2.7303278254792152 -8.0380800464479716 H
atom -5.0058904724009210 -3.5731633498996334 -5.6397415340645427 H
atom -6.2367136608949965 -3.2464099102682278 -10.0194510505833829 H
atom -4.4288437870716342 -3.1328026564914588 -3.6526179169781297 H
atom -5.4462278596026108 -6.2347813377968704 -0.2881895880394580 H
atom -3.8940092242604316 -2.7160121499734582 -1.4703252187667528 H
atom -4.3238013445592003 -4.1874127031395663 0.1531513029141736 H
atom -0.4742498325748744 -4.3191157415530563 -4.1496351703468086 H
atom -0.9466196946430642 -4.9207687655949570 -6.6699552883860465 H
atom -0.1568576136072749 -3.2190047278994647 -1.7146004644218116 H
atom -2.8109860427325146 -0.3231633498996328 -5.0314860382728819 H
atom -1.5328866594788755 -4.2854124678864345 -8.5846318815285549 H
atom -0.6021763904075681 -1.9618586614904969 -0.3289323007019858 H
atom -2.3706486555308293 -2.9847813377968686 -10.3830379842979710 H
atom -3.4930751705742340 -0.9374127031395746 -10.8243788752516021 H
atom -2.4687806930832612 -5.9803278254792147 -2.6331475258894548 H
atom -3.3880327280617979 -6.3828026564914575 -7.0186096553593025 H
atom -1.5801628542384463 -6.4964099102682287 -0.6517765217540453 H
atom -3.9228672908730058 -5.9660121499734586 -9.2009023535706795 H
