#=======================================================
# FHI-aims file: pahs_geometry_fix/PYRPYR10.in
# Created using the Atomic Simulation Environment (ASE)
# Tue May 25 14:20:53 2021
#=======================================================
lattice_vector 0.0000000000000012 7.7100000000000000 0.0000000000000005 
lattice_vector 11.5740213737580842 -0.0000000000000000 -6.2841808726190438 
lattice_vector -11.5740213737580842 -0.0000000000000000 -14.0358191273809574 
atom -6.5161740334258003 5.9598300000000011 -13.6324061687154785 H
atom 6.5161740334257994 1.7501700000000000 -6.6875938312845236 H
atom -5.0578473403322830 2.1048300000000006 -10.5634129586654790 H
atom 5.0578473403322839 5.6051700000000011 -9.7565870413345213 H
atom -0.3703686839602555 6.7077000000000009 -10.7513862120761896 H
atom 0.3703686839602594 1.0023000000000000 -9.5686137879238089 H
atom 0.3703686839602603 2.8527000000000005 -19.7286137879238090 H
atom -0.3703686839602590 4.8573000000000013 -0.5913862120761928 H
atom -1.9212875480438405 7.5249600000000010 -9.1574659751452394 H
atom 1.9212875480438423 0.1850400000000000 -11.1625340248547626 H
atom -9.6527338257142414 3.6699599999999997 -15.0383531522357181 H
atom 9.6527338257142414 4.0400400000000012 -5.2816468477642839 H
atom -4.1550736731791531 7.2859500000000006 -9.8546990667297649 H
atom 4.1550736731791513 0.4240500000000000 -10.4653009332702371 H
atom -7.4189477005789319 3.4309500000000006 -14.3411200606511944 H
atom 7.4189477005789319 4.2790500000000016 -5.9788799393488059 H
atom -0.9374957312744042 6.1217400000000000 -17.2100213493178593 H
atom 0.9374957312744047 1.5882600000000002 -3.1099786506821423 H
atom 0.9374957312744043 2.2667400000000004 -13.2699786506821447 H
atom -0.9374957312744059 5.4432599999999995 -7.0500213493178610 H
atom 0.9027736671531306 6.2219700000000016 -18.6359261080642860 H
atom -0.9027736671531306 1.4880300000000000 -1.6840738919357163 H
atom -0.9027736671531310 2.3669699999999998 -11.8440738919357162 H
atom 0.9027736671531310 5.3430300000000006 -8.4759261080642876 H
atom -5.9837690502329286 6.8541900000000009 -11.4627584888559539 H
atom 5.9837690502329286 0.8558100000000000 -8.8572415111440481 H
atom -5.5902523235251538 2.9991900000000000 -12.7330606385250036 H
atom 5.5902523235251556 4.7108099999999995 -7.5869393614749976 H
atom -8.5532017952072241 5.5280699999999996 -11.7339103351345280 H
atom 8.5532017952072241 2.1819300000000004 -8.5860896648654741 H
atom -3.0208195785508596 1.6730700000000003 -12.4619087922464313 H
atom 3.0208195785508609 6.0369299999999999 -7.8580912077535716 H
atom 0.4398128122028084 4.8110400000000011 -10.8051988731595241 H
atom -0.4398128122028084 2.8989600000000002 -9.5148011268404762 H
atom -0.4398128122028097 0.9560400000000001 -19.6748011268404781 H
atom 0.4398128122028087 6.7539600000000011 -0.6451988731595238 H
atom 2.6041548090955704 3.8472900000000005 -10.1312206963392857 H
atom -2.6041548090955695 3.8627099999999999 -10.1887793036607164 H
atom 8.9698665646625173 7.7022899999999996 -6.3129601762797583 H
atom -8.9698665646625155 0.0077100000000000 -14.0070398237202429 H
atom 4.2360918227954603 4.0708799999999998 -11.6675301993785716 H
atom -4.2360918227954585 3.6391199999999997 -8.6524698006214305 H
atom 7.3379295509626257 0.2158800000000000 -4.7766506732404768 H
atom -7.3379295509626257 7.4941200000000006 -15.5433493267595271 H
atom 5.0115512548372498 4.3946999999999994 -13.9783303178440477 H
atom -5.0115512548372498 3.3153000000000006 -6.3416696821559535 H
atom -5.0115512548372516 0.5397000000000002 -16.5016696821559563 H
atom 5.0115512548372516 7.1703000000000001 -3.8183303178440484 H
atom -7.1064491234874625 4.9652400000000005 -10.0403929442119075 H
atom 7.1064491234874643 2.7447600000000003 -10.2796070557880945 H
atom -4.4675722502706217 1.1102399999999999 -14.1554261831690500 H
atom 4.4675722502706208 6.5997600000000007 -6.1645738168309530 H
atom -5.9490469861116546 5.1117300000000014 -15.9316910314738109 H
atom 5.9490469861116555 2.5982700000000007 -4.3883089685261920 H
atom -5.6249743876464287 1.2567300000000003 -8.2641280959071466 H
atom 5.6249743876464287 6.4532700000000007 -12.0558719040928555 H
atom -4.2129437800479419 4.2559200000000015 -17.1587981623666685 H
atom 4.2129437800479446 3.4540800000000007 -3.1612018376333331 H
atom 4.2129437800479437 0.4009200000000001 -13.3212018376333337 H
atom -4.2129437800479419 7.3090800000000007 -6.9987981623666675 H
atom -2.0486017831551813 4.4949300000000010 -16.7083399855464307 H
atom 2.0486017831551822 3.2150700000000003 -3.6116600144535709 H
atom 2.0486017831551822 0.6399300000000000 -13.7716600144535715 H
atom -2.0486017831551808 7.0700700000000012 -6.5483399855464315 H
atom -5.6296039961959323 5.9536619999999996 -13.3050384235580967 C
atom 5.6296039961959332 1.7563380000000000 -7.0149615764419027 C
atom -5.9444173775621527 2.0986620000000005 -10.8907807038228608 C
atom 5.9444173775621509 5.6113379999999999 -9.4292192961771431 C
atom -2.2777674063555904 5.3252970000000008 -14.8628092042685722 C
atom 2.2777674063555908 2.3847030000000000 -5.4571907957314298 C
atom 2.2777674063555922 1.4702970000000000 -15.6171907957314282 C
atom -2.2777674063555886 6.2397030000000013 -4.7028092042685756 C
atom -0.8692090051692321 5.4964589999999998 -14.4896740164663118 C
atom 0.8692090051692331 2.2135410000000006 -5.8303259835336920 C
atom 0.8692090051692326 1.6414590000000000 -15.9903259835336922 C
atom -0.8692090051692307 6.0685409999999997 -4.3296740164663117 C
atom -0.5497660152535075 5.5966889999999996 -13.1513094085505973 C
atom 0.5497660152535093 2.1133109999999999 -7.1686905914494039 C
atom 0.5497660152535090 1.7416889999999998 -17.3286905914494085 C
atom -0.5497660152535078 5.9683109999999999 -2.9913094085505985 C
atom -1.5648076897320891 6.0330750000000002 -12.1856587460219057 C
atom 1.5648076897320926 1.6769250000000002 -8.1343412539780964 C
atom 1.5648076897320935 2.1780749999999998 -18.2943412539780965 C
atom -1.5648076897320902 5.5319250000000011 -2.0256587460219055 C
atom -1.2430498955416185 6.5858820000000007 -10.9420229742807162 C
atom 1.2430498955416189 1.1241180000000004 -9.3779770257192858 C
atom -10.3309714782164654 2.7308820000000007 -13.2537961531002431 C
atom 10.3309714782164654 4.9791180000000015 -7.0662038468997590 C
atom -2.2245269080363035 7.0453980000000005 -10.0677484362826224 C
atom 2.2245269080363044 0.6646020000000001 -10.2522515637173814 C
atom -9.3494944657217811 3.1903980000000005 -14.1280706910983387 C
atom 9.3494944657217811 4.5196020000000017 -6.1919293089016643 C
atom -3.5451227467821007 6.9443970000000004 -10.4215873987167882 C
atom 3.5451227467821007 0.7656030000000001 -9.8984126012832121 C
atom -8.0288986269759839 3.0893969999999999 -13.7742317286641711 C
atom 8.0288986269759803 4.6206030000000000 -6.5457682713358318 C
atom 0.1863417441175065 5.5458030000000003 -15.4874793120491674 C
atom -0.1863417441175073 2.1641970000000006 -4.8325206879508347 C
atom -0.1863417441175068 1.6908030000000003 -14.9925206879508348 C
atom 0.1863417441175060 6.0191969999999992 -5.3274793120491664 C
atom -0.0497682919071590 5.8804170000000013 -16.8263860222477390 C
atom 0.0497682919071595 1.8295830000000002 -3.4936139777522635 C
atom 0.0497682919071608 2.0254170000000005 -13.6536139777522632 C
atom -0.0497682919071590 5.6845830000000008 -6.6663860222477407 C
atom 1.0069398595169536 5.9459520000000010 -17.7171237359178555 C
atom -1.0069398595169532 1.7640480000000003 -2.6028762640821461 C
atom -1.0069398595169528 2.0909520000000006 -12.7628762640821449 C
atom 1.0069398595169536 5.6190480000000012 -7.5571237359178562 C
atom -5.2858555613953158 6.4093230000000014 -12.0875665954748825 C
atom 5.2858555613953166 1.3006769999999999 -8.2324334045251195 C
atom -6.2881658123627675 2.5543229999999997 -12.1082525319060750 C
atom 6.2881658123627675 5.1556770000000007 -8.2117474680939253 C
atom 2.2997580469657315 5.6498879999999998 -17.3502347393894034 C
atom -2.2997580469657324 2.0601119999999997 -2.9697652606105978 C
atom -2.2997580469657324 1.7948880000000003 -13.1297652606105952 C
atom 2.2997580469657324 5.9151119999999997 -7.1902347393894042 C
atom 2.5682753428369209 5.3592210000000016 -16.0289237356341658 C
atom -2.5682753428369192 2.3507790000000006 -4.2910762643658371 C
atom -2.5682753428369183 1.5042210000000003 -14.4510762643658364 C
atom 2.5682753428369200 6.2057790000000006 -5.8689237356341648 C
atom 1.5185116042370621 5.3538240000000012 -15.0627085304876189 C
atom -1.5185116042370608 2.3561760000000005 -5.2572914695123840 C
atom -1.5185116042370603 1.4988240000000002 -15.4172914695123833 C
atom 1.5185116042370612 6.2111760000000009 -4.9027085304876206 C
atom 1.8182787578173969 5.1071039999999996 -13.6872448150884516 C
atom -1.8182787578173956 2.6028959999999999 -6.6327551849115478 C
atom -1.8182787578173960 1.2521039999999999 -16.7927551849115488 C
atom 1.8182787578173951 6.4578959999999999 -3.5272448150884532 C
atom 0.8009222790640591 5.2096469999999995 -12.7162733163852391 C
atom -0.8009222790640612 2.5003529999999996 -7.6037266836147621 C
atom -0.8009222790640603 1.3546469999999999 -17.7637266836147631 C
atom 0.8009222790640609 6.3553530000000000 -2.5562733163852389 C
atom 1.1203652689797834 4.7987040000000007 -11.4205807084695241 C
atom -1.1203652689797818 2.9112960000000006 -8.8994192915304797 C
atom -1.1203652689797825 0.9437040000000001 -19.0594192915304781 C
atom 1.1203652689797836 6.7662960000000014 -1.2605807084695233 C
atom 2.3680447730709049 4.3607759999999995 -11.0515354065378570 C
atom -2.3680447730709053 3.3492240000000000 -9.2684645934621450 C
atom 9.2059766006871797 0.5057760000000000 -5.3926454660811860 C
atom -9.2059766006871797 7.2042240000000008 -14.9273545339188143 C
atom 3.3888734582363669 4.3684859999999999 -11.9918801595028590 C
atom -3.3888734582363669 3.3415140000000005 -8.3281198404971466 C
atom 8.1851479155217177 0.5134860000000000 -4.4523007131161885 C
atom -8.1851479155217159 7.1965139999999996 -15.8676992868838127 C
atom 3.1377171944258171 4.7239170000000001 -13.3083934345670247 C
atom -3.1377171944258175 2.9860830000000003 -7.0116065654329782 C
atom -3.1377171944258175 0.8689170000000001 -17.1716065654329775 C
atom 3.1377171944258175 6.8410829999999994 -3.1483934345670233 C
atom 4.1631754881407836 4.7370240000000008 -14.3061158598810714 C
atom -4.1631754881407819 2.9729760000000005 -6.0138841401189307 C
atom -4.1631754881407836 0.8820240000000001 -16.1738841401189326 C
atom 4.1631754881407828 6.8279760000000014 -4.1461158598810739 C
atom -3.9131766264676071 6.4494150000000010 -11.6766624469675016 C
atom 3.9131766264676084 1.2605850000000003 -8.6433375530325005 C
atom -7.6608447472904748 2.5944150000000001 -12.5191566804134560 C
atom 7.6608447472904748 5.1155849999999994 -7.8008433195865479 C
atom 3.9004452029564751 5.0469659999999994 -15.5757049540726200 C
atom -3.9004452029564742 2.6630339999999997 -4.7442950459273847 C
atom -3.9004452029564747 1.1919659999999999 -14.9042950459273857 C
atom 3.9004452029564751 6.5180340000000001 -5.4157049540726199 C
atom -2.9189681904617859 6.0369299999999999 -12.5944255839254780 C
atom 2.9189681904617886 1.6730700000000003 -7.7255744160745232 C
atom -8.6550531832962960 2.1819300000000004 -11.6013935434554796 C
atom 8.6550531832962960 5.5280699999999996 -8.7186064565445243 C
atom -3.2823924615977917 5.6213609999999994 -13.9007823045252401 C
atom 3.2823924615977935 2.0886389999999997 -6.4192176954747602 C
atom -8.2916289121602897 1.7663610000000003 -10.2950368228557174 C
atom 8.2916289121602915 5.9436390000000001 -10.0249631771442846 C
atom -4.6597010050750045 5.5165050000000013 -14.2685327806835733 C
atom 4.6597010050750045 2.1934950000000004 -6.0514672193164296 C
atom -6.9143203686830788 1.6615050000000002 -9.9272863466973842 C
atom 6.9143203686830796 6.0484950000000008 -10.3927136533026179 C
atom -4.9976624291887397 5.0492790000000012 -15.5257226992030972 C
atom 4.9976624291887406 2.6607210000000001 -4.7942773007969066 C
atom -6.5763589445693436 1.1942790000000003 -8.6700964281778603 C
atom 6.5763589445693444 6.5157210000000001 -11.6499035718221418 C
atom -4.0289168402051878 4.6499010000000007 -16.3951166382413120 C
atom 4.0289168402051905 3.0600989999999997 -3.9248833617586900 C
atom 4.0289168402051896 0.7949010000000001 -14.0848833617586919 C
atom -4.0289168402051878 6.9150990000000014 -6.2351166382413101 C
atom -2.6909599693987540 4.7732609999999998 -16.0811839471160738 C
atom 2.6909599693987549 2.9367390000000007 -4.2388160528839309 C
atom 2.6909599693987545 0.9182610000000001 -14.3988160528839284 C
atom -2.6909599693987518 6.7917389999999997 -5.9211839471160719 C
