#=======================================================
# FHI-aims file: pahs_geometry_fix/POBPIG06.in
# Created using the Atomic Simulation Environment (ASE)
# Tue May 25 14:20:53 2021
#=======================================================
lattice_vector 7.1645257672961176 0.0000000000000000 -0.3022868501109220 
lattice_vector 0.0000000000000014 8.5495999999999999 0.0000000000000005 
lattice_vector 0.0000000000000000 0.0000000000000000 16.7981000000000016 
atom 3.0742980067467647 5.7402014399999999 8.2659790926174050 H
atom 4.0902277605493538 2.8093985600000000 8.2298340572716757 H
atom 0.5079648769012950 1.4654014399999999 8.3809774823271361 H
atom 6.6565608903948243 7.0841985599999999 8.1148356675619446 H
atom 3.7205382309568744 5.7632853600000002 6.0062453287373989 H
atom 3.4439875363392445 2.7863146400000001 10.4895678211516810 H
atom 7.0262504199873028 1.4884853600000001 10.3384243960962205 H
atom 0.1382753473088162 7.0611146399999996 6.1573887537928602 H
atom 5.4844444748651782 2.9513219199999998 3.9362080262400898 H
atom 1.6800812924309403 5.5982780800000000 12.5596051236489910 H
atom 5.2623441760790000 7.2261219199999998 12.4084616985935288 H
atom 1.9021815912171196 1.3234780799999999 4.0873514512955502 H
atom 4.7343186270292756 2.8453068799999999 6.1616893194467028 H
atom 2.4302071402668441 5.7042931200000000 10.3341238304423761 H
atom 6.0124700239149025 7.1201068799999998 10.1829804053869157 H
atom 1.1520557433812160 1.4294931199999998 6.3128327445021641 H
atom 3.7835860577090807 5.5555300800000005 3.1731053544564225 H
atom 3.3809397095870382 2.9940699199999998 13.3227077954326578 H
atom 6.9632025932350965 1.2807300799999999 13.1715643703771956 H
atom 0.2013231740610221 7.2688699199999993 3.3242487795118838 H
atom 3.3895371405077941 5.0827372000000004 0.9085491512125232 H
atom 3.7749886267883253 3.4668628000000004 15.5872639986765567 H
atom 0.1927257431402657 0.8079372000000000 15.7384074237320171 H
atom 6.9718000241558524 7.7416627999999994 0.7574057261570625 H
atom 1.4930871699045116 3.9567548799999996 0.2729654204368842 H
atom 5.6714385973916075 4.5928451199999998 16.2228477294521944 H
atom 2.0891757137435496 8.2315548799999991 16.3739911545076566 H
atom 5.0753500535525697 0.3180451200000000 0.1218219953814229 H
atom 7.0749691952049174 3.2839013599999998 1.5425634955154650 H
atom 0.0895565720912023 5.2656986400000001 14.9532496543736144 H
atom 3.6718194557392612 7.5587013599999997 14.8021062293181540 H
atom 3.4927063115568573 0.9908986400000001 1.6937069205709259 H
atom 1.6156005605252752 4.1508307999999996 1.1648148552999875 C
atom 5.5489252067708437 4.3987691999999994 15.3309982945890919 C
atom 1.9666623231227858 8.4256308000000004 15.4821417196445541 C
atom 5.1978634441733336 0.1239692000000000 1.0136714302445262 C
atom 2.7805524502876242 4.7963256000000003 1.5473741834719514 C
atom 4.3839733170084951 3.7532744000000000 14.9484389664171289 C
atom 0.8017104333604357 0.5215256000000000 15.0995823914725893 C
atom 6.3628153339356830 8.0280743999999995 1.3962307584164908 C
atom 0.6627186334748915 3.7908926400000000 2.1087567863647401 C
atom 6.5018071338212273 4.7587073599999998 14.3870563635243407 C
atom 2.9195442501731690 8.0656926400000000 14.5381997885798011 C
atom 4.2449815171229499 0.4839073600000000 1.9576133613092790 C
atom 3.0191311583385847 5.0861570399999998 2.8912348913632582 C
atom 4.1453946089575346 3.4634429600000001 13.6045782585258230 C
atom 0.5631317253094750 0.8113570400000000 13.7557216835812834 C
atom 6.6013940419866435 7.7382429600000000 2.7400914663077973 C
atom 0.8783708590705047 4.0678996800000000 3.4388024841764016 C
atom 6.2861549082256145 4.4817003199999998 13.0570106657126779 C
atom 2.7038920245775562 8.3426996799999991 13.2081540907681401 C
atom 4.4606337427185627 0.2069003200000000 3.2876590591209403 C
atom 2.0870263560133600 4.7133944799999998 3.8359800005626892 C
atom 5.0774994112827594 3.8362055200000000 12.6598331493263903 C
atom 1.4952365276346997 0.4385944800000000 12.8109765743818507 C
atom 5.6692892396614187 8.1110055199999991 3.6848365755072283 C
atom 0.0752275205566098 3.8370604799999999 4.6488918020738366 C
atom 7.0892982467395091 4.7125395200000000 11.8469213478152451 C
atom 3.5070353630914508 8.1118604799999989 11.9980647728707055 C
atom 3.6574904042046676 0.4377395200000000 4.4977483770183753 C
atom 2.0626669684045531 4.8707071199999996 5.3029779628530660 C
atom 5.1018587988915662 3.6788928800000003 11.1928351870360139 C
atom 1.5195959152435066 0.5959071200000000 11.3439786120914743 C
atom 5.6449298520526119 7.9536928800000002 5.1518345377976056 C
atom 6.0167687393752800 3.2847563199999996 4.6280033252768478 C
atom 1.1477570279208389 5.2648436800000002 11.8678098246122321 C
atom 4.7300199115688981 7.5595563199999996 11.7166663995567717 C
atom 2.4345058557272208 0.9900436800000000 4.7791467503323091 C
atom 0.8346672518899985 4.3260975999999998 5.7278757299620784 C
atom 6.3298585154061202 4.2235024000000001 10.7679374199270015 C
atom 2.7475956317580610 0.0512976000000000 10.9190808449824619 C
atom 4.4169301355380588 8.4983024000000000 5.5767323049066180 C
atom 2.9023493883316580 5.3828281600000008 6.2685487230200669 C
atom 4.2621763789644609 3.1667718400000000 10.2272644268690129 C
atom 0.6799134953164018 1.1080281599999999 10.3784078519244733 C
atom 6.4846122719797172 7.4415718399999990 6.1174052979646056 C
atom 5.5632542583054363 3.2471380800000000 5.9694845148888698 C
atom 1.6012715089906833 5.3024619199999998 10.5263286350002101 C
atom 5.1835343926387418 7.5219380800000000 10.3751852099447497 C
atom 1.9809913746573768 1.0276619199999999 6.1206279399443311 C
atom 0.4212741151170123 4.2944640800000000 7.0564093862134785 C
atom 6.7432516521791070 4.2551359199999998 9.4394037636756014 C
atom 3.1609887685310469 0.0196640800000000 9.5905471887310618 C
atom 4.0035369987650720 8.5299359199999998 6.9052659611580181 C
atom 2.5083004711303718 5.3623091199999999 7.6216313357761667 C
atom 4.6562252961657480 3.1872908799999999 8.8741818141129123 C
atom 1.0739624125176883 1.0875091200000000 9.0253252391683745 C
atom 6.0905633547784301 7.4620908799999999 7.4704879107207063 C
atom 6.3062155803740438 3.7378851199999996 7.0449641775323677 C
atom 0.8583101869220757 4.8117148799999994 9.4508489723567131 C
atom 4.4405730705701343 8.0126851200000004 9.2997055473012527 C
atom 2.7239526967259837 0.5369148800000000 7.1961076025878281 C
atom 1.2974956164573279 4.8339438399999999 8.0508430444449139 C
atom 5.8670301508387910 3.7156561600000000 8.4449701054441668 C
atom 2.2847672671907322 0.5591438399999999 8.5961135304996272 C
atom 4.8797585001053871 7.9904561599999999 7.8996996193894526 C
