#=======================================================
# FHI-aims file: pahs_geometry_fix/PEZPIU.in
# Created using the Atomic Simulation Environment (ASE)
# Tue May 25 14:20:53 2021
#=======================================================
lattice_vector -0.0000000000000000 -0.0000000000000000 7.8348000000000004 
lattice_vector 11.2721444480254078 -0.0000000000000000 -1.3441218482153974 
lattice_vector 0.0000000000000039 24.2480000000000011 0.0000000000000015 
atom 9.1360730751245960 23.5714807999999962 0.5159397620214220 H
atom 2.1360713729008149 0.6765192000000001 5.9747383897631838 H
atom 2.1360713729008167 11.4474807999999992 2.0573383897631827 H
atom 9.1360730751245942 12.8005192000000019 4.4333397620214212 H
atom 9.7515321619867823 6.0377519999999993 3.0405703891088609 H
atom 1.5206122860386306 18.2102479999999964 3.4501077626757444 H
atom 1.5206122860386306 18.1617519999999963 7.3675077626757455 H
atom 9.7515321619867823 6.0862480000000003 -0.8768296108911396 H
atom 4.7027386637162021 5.3030376000000006 3.8400395249245376 H
atom 6.5694057843092102 18.9449624000000014 2.6506386268600681 H
atom 6.5694057843092102 17.4270376000000020 6.5680386268600692 H
atom 4.7027386637162012 6.8209624000000000 -0.0773604750754632 H
atom 0.6661837368783025 5.4048791999999990 4.7906740787704720 H
atom 10.6059607111471106 18.8431208000000012 1.7000040730141341 H
atom 10.6059607111471106 17.5288792000000022 5.6174040730141348 H
atom 0.6661837368783027 6.7191208000000007 0.8732740787704706 H
atom 7.1724655122785705 22.4924448000000012 1.0384064279805441 H
atom 4.0996789357468408 1.7555552000000003 5.4522717238040599 H
atom 4.0996789357468426 10.3684448000000007 1.5348717238040606 H
atom 7.1724655122785697 13.8795551999999986 4.9558064279805452 H
atom 6.2504040964300920 22.7058272000000017 3.0953033951645645 H
atom 5.0217403515953194 1.5421728000000001 3.3953747566200416 H
atom 5.0217403515953212 10.5818272000000011 -0.5220252433799588 H
atom 6.2504040964300893 13.6661728000000000 7.0127033951645643 H
atom 2.3637686907509292 4.2894712000000004 -0.0076443515707685 H
atom 8.9083757572744826 19.9585288000000034 6.4983225033553733 H
atom 8.9083757572744808 16.4134712000000000 2.5809225033553731 H
atom 2.3637686907509292 7.8345288000000002 3.9097556484292317 H
atom 10.2148172988006252 0.6643952000000001 2.0114613411472071 H
atom 1.0573271492247869 23.5836047999999998 4.4792168106373973 H
atom 1.0573271492247851 12.7883952000000001 0.5618168106373965 H
atom 10.2148172988006269 11.4596047999999993 5.9288613411472078 H
atom 2.8315626853439837 4.9950880000000000 5.6990699917282930 H
atom 8.4405817626814308 19.2529120000000020 0.7916081600563120 H
atom 8.4405817626814308 17.1190880000000014 4.7090081600563121 H
atom 2.8315626853439837 7.1289119999999988 1.7816699917282934 H
atom 1.6603868771941430 3.8311840000000004 3.5164895317578728 H
atom 9.6117575708312692 20.4168160000000007 2.9741886200267333 H
atom 9.6117575708312675 15.9551839999999991 -0.9432113799732683 H
atom 1.6603868771941437 8.2928160000000002 7.4338895317578739 H
atom 8.4541083360190541 4.1706560000000001 4.8296180938384525 H
atom 2.8180361120063551 20.0773440000000001 1.6610600579461523 H
atom 2.8180361120063546 16.2946560000000034 5.5784600579461525 H
atom 8.4541083360190594 7.9533439999999995 0.9122180938384530 H
atom 6.9199694766427999 2.8442904000000002 1.4751408773805685 H
atom 4.3521749713826132 21.4037096000000027 5.0155372744040365 H
atom 4.3521749713826123 14.9682903999999972 1.0981372744040361 H
atom 6.9199694766428008 9.2797096000000003 5.3925408773805694 H
atom 6.4025780464784345 23.7169687999999965 5.3429819102136555 H
atom 4.8695664015469760 0.5310312000000000 1.1476962415709486 H
atom 4.8695664015469777 11.5929688000000013 5.0650962415709495 H
atom 6.4025780464784319 12.6550312000000016 1.4255819102136551 H
atom 8.5082146293695775 4.9829639999999999 1.4667379889670185 H
atom 2.7639298186558330 19.2650360000000020 5.0239401628175857 H
atom 2.7639298186558325 17.1069640000000014 1.1065401628175857 H
atom 8.5082146293695793 7.1410359999999988 5.3841379889670185 H
atom 10.3692456777385740 1.6803864000000002 4.3137146318266568 H
atom 0.9028987702868388 22.5676136000000014 2.1769635199579489 H
atom 0.9028987702868374 13.8043864000000021 6.0943635199579482 H
atom 10.3692456777385758 10.4436135999999991 0.3963146318266570 H
atom 3.9914663490457976 3.4480656000000001 1.3934297335469283 H
atom 7.2806780989796147 20.7999344000000015 5.0972484182376760 H
atom 7.2806780989796138 15.5720655999999984 1.1798484182376758 H
atom 3.9914663490457984 8.6759344000000009 5.3108297335469299 H
atom 0.3539453356679980 1.2439223999999998 7.7761414939660369 H
atom 10.9181991123574136 23.0040776000000022 -1.2854633421814325 H
atom 10.9181991123574100 13.3679224000000012 2.6319366578185681 H
atom 0.3539453356679996 10.8800775999999981 3.8587414939660385 H
atom 6.8838986144091177 5.0557080000000001 3.2869304272948576 H
atom 4.3882458336162928 19.1922920000000019 3.2037477244897472 H
atom 4.3882458336162937 17.1797080000000015 7.1211477244897479 H
atom 6.8838986144091177 7.0682919999999987 -0.6304695727051427 H
atom 7.5117570601641317 0.7395639999999999 6.9273250003492608 H
atom 3.7603873878612801 23.5084360000000032 -0.4366468485646551 H
atom 3.7603873878612788 12.8635640000000002 3.4807531514353443 H
atom 7.5117570601641344 11.3844359999999991 3.0099250003492606 H
atom 1.5194850715938257 2.1944439999999998 1.6137650548605651 H
atom 9.7526593764315859 22.0535559999999968 4.8769130969240413 H
atom 9.7526593764315823 14.3184440000000013 0.9595130969240393 H
atom 1.5194850715938266 9.9295559999999998 5.5311650548605664 H
atom 8.7753644527877839 23.6830216000000000 1.3659360611643154 C
atom 2.4967799952376279 0.5649784000000001 5.1247420906202903 C
atom 2.4967799952376297 11.5590216000000012 1.2073420906202905 C
atom 8.7753644527877821 12.6889783999999999 5.2833360611643139 C
atom 10.1325306443300374 5.3539583999999998 2.5375867506391803 C
atom 1.1396138036953720 18.8940416000000013 3.9530914011454255 C
atom 1.1396138036953718 17.4779584000000021 0.0356914011454244 C
atom 10.1325306443300409 6.7700416000000008 6.4549867506391809 C
atom 5.2922718183479294 4.9441671999999999 4.4639052322628716 C
atom 5.9798726296774811 19.3038328000000021 2.0267729195217341 C
atom 5.9798726296774811 17.0681672000000013 5.9441729195217334 C
atom 5.2922718183479294 7.1798327999999998 0.5465052322628715 C
atom 0.1848631689476175 4.9902384000000009 4.1115968816892670 C
atom 11.0872812790777964 19.2577616000000020 2.3790812700953370 C
atom 11.0872812790777964 17.1142384000000014 6.2964812700953372 C
atom 0.1848631689476178 7.1337616000000006 0.1941968816892680 C
atom 7.5872804279659061 23.0234760000000023 1.6799721039662174 C
atom 3.6848640200595062 1.2245240000000002 4.8107060478183872 C
atom 3.6848640200595080 10.8994759999999999 0.8933060478183873 C
atom 7.5872804279659043 13.3485240000000012 5.5973721039662179 C
atom 7.0417086366814763 23.1447160000000025 2.8834240414198433 C
atom 4.2304358113439360 1.1032839999999999 3.6072541103647624 C
atom 4.2304358113439378 11.0207160000000002 -0.3101458896352380 C
atom 7.0417086366814745 13.2272840000000009 6.8008240414198431 C
atom 3.2373598854728987 4.2288512000000003 -0.3194359948074619 C
atom 8.0347845625525149 20.0191488000000000 6.8101141465920669 C
atom 8.0347845625525132 16.3528511999999964 2.8927141465920658 C
atom 3.2373598854728987 7.8951488000000003 3.5979640051925381 C
atom 9.4280216163284507 0.2327808000000000 2.2510083261526419 C
atom 1.8441228316969605 24.0152192000000007 4.2396698256319638 C
atom 1.8441228316969589 12.3567807999999992 0.3222698256319618 C
atom 9.4280216163284525 11.8912192000000001 6.1684083261526430 C
atom 3.5112729955599153 4.6507664000000002 6.2322677642809055 C
atom 7.7608714524654969 19.5972336000000027 0.2584103875037006 C
atom 7.7608714524654960 16.7747664000000007 4.1758103875037014 C
atom 3.5112729955599158 7.4732335999999986 2.3148677642809048 C
atom 0.7698874658001360 4.0494160000000008 3.3649102377668889 C
atom 10.5022569822252763 20.1985840000000003 3.1257679140177164 C
atom 10.5022569822252745 16.1734160000000031 -0.7916320859822846 C
atom 0.7698874658001368 8.0745840000000015 7.2823102377668913 C
atom 7.5591000668458390 4.2603736000000003 5.0656155685867565 C
atom 3.7130443811795728 19.9876264000000035 1.4250625831978496 C
atom 3.7130443811795724 16.3843736000000000 5.3424625831978494 C
atom 7.5591000668458390 7.8636264000000002 1.1482155685867550 C
atom 6.7790676710424833 3.1692136000000004 0.6160117604832601 C
atom 4.4930767769829316 21.0787863999999985 5.8746663913013446 C
atom 4.4930767769829307 15.2932136000000014 1.9572663913013439 C
atom 6.7790676710424824 8.9547864000000015 4.5334117604832613 C
atom 7.2017730878434367 24.1388840000000009 5.1254607911751853 C
atom 4.0703713601819747 0.1091160000000000 1.3652173606094200 C
atom 4.0703713601819764 12.0148839999999986 5.2826173606094216 C
atom 7.2017730878434341 12.2331159999999990 1.2080607911751831 C
atom 9.3942051829843738 4.7307848000000003 1.5961340116972884 C
atom 1.8779392650410360 19.5172151999999954 4.8945441400873166 C
atom 1.8779392650410356 16.8547848000000009 0.9771441400873160 C
atom 9.3942051829843791 7.3932151999999993 5.5135340116972884 C
atom 9.5835772097112013 1.2269488000000000 4.5210045246472692 C
atom 1.6885672383142101 23.0210512000000023 1.9696736271373356 C
atom 1.6885672383142085 13.3509487999999976 5.8870736271373350 C
atom 9.5835772097112049 10.8970512000000017 0.6036045246472699 C
atom 4.2112731657822930 3.7123688000000006 0.5296792375067280 C
atom 7.0608712822431183 20.5356312000000010 5.9609989142778774 C
atom 7.0608712822431174 15.8363687999999989 2.0435989142778763 C
atom 4.2112731657822948 8.4116312000000004 4.4470792375067294 C
atom 8.9072485428296773 0.3806935999999999 3.4804919555401934 C
atom 2.3648959051957346 23.8673064000000004 3.0101861962444119 C
atom 2.3648959051957332 12.5046936000000013 6.9275861962444107 C
atom 8.9072485428296773 11.7433064000000016 -0.4369080444598061 C
atom 11.2000027235580450 1.8476976000000003 -0.8364427083868184 C
atom 0.0721417244673662 22.4003024000000011 7.3271208601714255 C
atom 0.0721417244673649 13.9716976000000024 3.4097208601714226 C
atom 11.2000027235580468 10.2763023999999987 3.0809572916131818 C
atom 6.5987133598740737 4.8011040000000005 4.1349724300547068 C
atom 4.6734310881513377 19.4468960000000024 2.3557057217298980 C
atom 4.6734310881513368 16.9251040000000010 6.2731057217298973 C
atom 6.5987133598740737 7.3228960000000001 0.2175724300547072 C
atom 0.0495974355713123 3.3825960000000004 2.3468763038678526 C
atom 11.2225470124541005 20.8654039999999981 4.1438018479167509 C
atom 11.2225470124540987 15.5065960000000000 0.2264018479167513 C
atom 0.0495974355713132 8.7414039999999993 6.2642763038678542 C
atom 7.8634479669425241 0.6643952000000001 6.0697857186849387 C
atom 3.4086964810828873 23.5836047999999998 0.4208924330996654 C
atom 3.4086964810828855 12.7883952000000001 4.3382924330996664 C
atom 7.8634479669425259 11.4596047999999993 2.1523857186849398 C
atom 9.8349460309021683 2.1265496000000002 -1.0317199125679337 C
atom 1.4371984171232430 22.1214503999999970 7.5223980643525383 C
atom 1.4371984171232417 14.2505496000000011 3.6049980643525377 C
atom 9.8349460309021701 9.9974504000000000 2.8856800874320663 C
atom 0.6278584457550157 2.4296495999999999 1.4928758930544028 C
atom 10.6442860022703965 21.8183504000000035 4.9978022587302036 C
atom 10.6442860022703947 14.5536496000000000 1.0804022587302016 C
atom 0.6278584457550168 9.6943503999999994 5.4102758930544042 C
atom 5.5030609195260052 3.5984032000000004 0.0755700337012432 C
atom 5.7690835284994080 20.6495967999999976 6.4151081180833609 C
atom 5.7690835284994071 15.7224032000000005 2.4977081180833607 C
atom 5.5030609195260070 8.5255967999999989 3.9929700337012446 C
atom 4.8008063204140230 4.5610488000000000 5.7431707848450628 C
atom 6.4713381276113910 19.6869511999999958 0.7475073669395418 C
atom 6.4713381276113902 16.6850488000000006 4.6649073669395422 C
atom 4.8008063204140221 7.5629512000000005 1.8257707848450628 C
atom 7.7293094480110254 24.0030951999999971 3.8826350086787031 C
atom 3.5428350000143860 0.2449048000000000 2.6080431431059008 C
atom 3.5428350000143878 11.8790952000000001 6.5254431431059023 C
atom 7.7293094480110227 12.3689048000000010 -0.0347649913212969 C
atom 7.7450904502382603 3.3268255999999998 -0.3476883219087993 C
atom 3.5270539977871542 20.9211744000000017 6.8383664736934024 C
atom 3.5270539977871529 15.4508255999999982 2.9209664736934031 C
atom 7.7450904502382611 8.7971744000000012 3.5697116780912008 C
atom 9.0549136350988100 1.3312151999999999 5.7467281593285726 C
atom 2.2172308129266010 22.9167847999999985 0.7439499924560330 C
atom 2.2172308129266001 13.4552151999999996 4.6613499924560324 C
atom 9.0549136350988118 10.7927847999999997 1.8293281593285722 C
atom 5.7578113840513794 4.0469911999999990 6.5966526399315750 C
atom 5.5143330639740329 20.2010088000000003 -0.1059744881469711 C
atom 5.5143330639740320 16.1709912000000031 3.8114255118530296 C
atom 5.7578113840513794 8.0770087999999998 2.6792526399315753 C
atom 9.1946882262543248 3.0067519999999996 -0.2134182315892993 C
atom 2.0774562217710866 21.2412480000000023 6.7040963833739040 C
atom 2.0774562217710844 15.1307520000000011 2.7866963833739034 C
atom 9.1946882262543266 9.1172479999999982 3.7039817684107019 C
atom 7.1251225055968614 3.8942288000000000 6.2823990197430488 C
atom 4.1470219424285508 20.3537712000000006 0.2082791320415567 C
atom 4.1470219424285499 16.0182287999999957 4.1256791320415571 C
atom 7.1251225055968614 8.2297712000000001 2.3649990197430486 C
atom 9.9499219042720277 3.7026695999999997 0.8020158845802697 C
atom 1.3222225437533837 20.5453304000000010 5.6886622672043350 C
atom 1.3222225437533828 15.8266695999999971 1.7712622672043350 C
atom 9.9499219042720295 8.4213304000000004 4.7194158845802701 C
