#=======================================================
# FHI-aims file: pahs_geometry_fix/GUQZUP.in
# Created using the Atomic Simulation Environment (ASE)
# Tue May 25 14:20:52 2021
#=======================================================
lattice_vector -0.0000000000000013 -7.9282000000000004 -0.0000000000000005 
lattice_vector -12.2984716608420968 0.0000000000000000 0.0264018458418745 
lattice_vector 0.0000000000000000 0.0000000000000000 -13.9979999999999993 
atom -9.9765202112751084 -7.3978034200000007 -3.1477300226530707 H
atom -2.3219514495669862 -0.5303965799999997 -10.8238681315050531 H
atom -2.3219514495669880 -3.4337034200000005 -3.8248681315050521 H
atom -9.9765202112751101 -4.4944965799999999 -10.1467300226530703 H
atom -9.5989571312872570 -0.1308153000000006 -0.9648525593204156 H
atom -2.6995145295548406 -7.7973847000000003 -13.0067455948377084 H
atom -2.6995145295548397 -4.0949153000000003 -6.0077455948377079 H
atom -9.5989571312872570 -3.8332847000000005 -7.9638525593204168 H
atom -7.4344261189790481 -0.6516980400000004 -0.2416032841885850 H
atom -4.8640455418630504 -7.2765019600000000 -13.7299948699695396 H
atom -4.8640455418630486 -4.6157980400000005 -6.7309948699695372 H
atom -7.4344261189790481 -3.3124019599999999 -7.2406032841885866 H
atom -5.6437686451604376 -0.4019597399999997 -1.6844417929431634 H
atom -6.6547030156816600 -7.5262402600000007 -12.2871563612149615 H
atom -6.6547030156816600 -4.3660597399999999 -5.2881563612149609 H
atom -5.6437686451604385 -3.5621402600000005 -8.6834417929431638 H
atom -4.6377536633035552 -6.5090522000000011 -1.9903580639330283 H
atom -7.6607179975385424 -1.4191478000000004 -11.9812400902250964 H
atom -7.6607179975385424 -2.5449522000000004 -4.9822400902250958 H
atom -4.6377536633035552 -5.3832478000000004 -8.9893580639330288 H
atom -2.4732226509953446 -5.9112659200000008 -1.4364845888011974 H
atom -9.8252490098467504 -2.0169340800000000 -12.5351135653569266 H
atom -9.8252490098467504 -1.9471659200000013 -5.5361135653569269 H
atom -2.4732226509953446 -5.9810340799999997 -8.4354845888011987 H
atom -0.7354486053183580 -6.2577282600000004 -2.9729961696186549 H
atom -11.5630230555237397 -1.6704717400000000 -10.9986019845394694 H
atom -11.5630230555237397 -2.2936282600000002 -3.9996019845394692 H
atom -0.7354486053183579 -5.6345717400000002 -9.9719961696186559 H
atom -1.1634354191156637 -7.2487532600000000 -5.0143855853833577 H
atom -11.1350362417264339 -0.6794467400000009 -8.9572125687747661 H
atom -11.1350362417264339 -3.2846532600000002 -1.9582125687747647 H
atom -1.1634354191156633 -4.6435467400000006 -12.0133855853833591 H
atom -1.1007132136453681 -1.2851612200000002 -5.4106636347971513 H
atom -11.1977584471967297 -6.6430387800000004 -8.5609345193609734 H
atom -11.1977584471967297 -5.2492612200000011 -1.5619345193609728 H
atom -1.1007132136453697 -2.6789387800000006 -12.4096636347971518 H
atom -11.9664129259993608 -2.5608085999999997 -6.6611556039958559 H
atom -0.3320587348427378 -5.3673914000000007 -7.3104425501622687 H
atom -0.3320587348427380 -6.5249085999999998 -0.3114425501622680 H
atom -11.9664129259993608 -1.4032914000000005 -13.6601556039958556 H
atom -10.1044243165478669 -5.6282291799999999 -4.1455128434563138 H
atom -2.1940473442942290 -2.2999708200000004 -9.8260853107018082 H
atom -2.1940473442942290 -1.6641291800000000 -2.8270853107018086 H
atom -10.1044243165478669 -6.2640708200000006 -11.1445128434563152 H
atom -12.0537320747913395 -4.8044891999999999 -5.0763945508903792 H
atom -0.2447395860507586 -3.1237108000000005 -8.8952036032677455 H
atom -0.2447395860507569 -0.8403891999999999 -1.8962036032677445 H
atom -12.0537320747913395 -7.0878108000000006 -12.0753945508903797 H
atom -3.4787456939857941 -0.2211967800000012 -6.0351886138851647 C
atom -8.8197259668563017 -7.7070032199999998 -7.9364095402729573 C
atom -8.8197259668563017 -4.1852967800000007 -0.9374095402729574 C
atom -3.4787456939857946 -3.7429032200000001 -13.0341886138851670 C
atom -4.7966499171616350 -0.1308153000000006 -6.5019922920847524 C
atom -7.5018217436804626 -7.7973847000000003 -7.4696058620733732 C
atom -7.5018217436804626 -4.0949153000000003 -0.4706058620733716 C
atom -4.7966499171616341 -3.8332847000000005 -13.5009922920847529 C
atom -5.8636653184562961 -7.7331662800000007 -5.5908115279395112 C
atom -6.4348063423858024 -0.1950337199999997 -8.3807866262186135 C
atom -6.4348063423858024 -3.7690662800000005 -1.3817866262186147 C
atom -5.8636653184562944 -4.1591337199999998 -12.5898115279395100 C
atom -7.2134225832337160 -7.5809448400000008 -6.0750443253583644 C
atom -5.0850490776083817 -0.3472551599999996 -7.8965538287997594 C
atom -5.0850490776083825 -3.6168448400000006 -0.8975538287997598 C
atom -7.2134225832337160 -4.3113551600000006 -13.0740443253583649 C
atom -8.2343187158002191 -7.2122835399999996 -5.1939182881350305 C
atom -4.0641529450418794 -0.7159164600000013 -8.7776798660230941 C
atom -4.0641529450418812 -3.2481835399999999 -1.7786798660230938 C
atom -8.2343187158002191 -4.6800164600000009 -12.1929182881350311 C
atom -8.0178656145693967 -7.4081100800000002 -3.7728860606218486 C
atom -4.2806060462726991 -0.5200899200000009 -10.1987120935362761 C
atom -4.2806060462727009 -3.4440100800000004 -3.1997120935362773 C
atom -8.0178656145693967 -4.4841899200000004 -10.7718860606218474 C
atom -9.0880786184958779 -7.5722238199999996 -2.8600186719966882 C
atom -3.2103930423462215 -0.3559761800000013 -11.1115794821614351 C
atom -3.2103930423462237 -3.6081238199999999 -4.1125794821614363 C
atom -9.0880786184958779 -4.3200761800000000 -9.8590186719966884 C
atom -8.8669520980339342 -0.0507404800000006 -1.5653984171849238 C
atom -3.4315195628081638 -7.8774595200000004 -12.4061997369731998 C
atom -3.4315195628081629 -4.0148404800000002 -5.4071997369731983 C
atom -8.8669520980339342 -3.9133595200000006 -8.5643984171849237 C
atom -7.5788101762773357 -0.3448766999999999 -1.1289065065184023 C
atom -4.7196614845647638 -7.5833233000000009 -12.8426916476397217 C
atom -4.7196614845647620 -4.3089767000000005 -5.8436916476397212 C
atom -7.5788101762773348 -3.6192233000000011 -8.1279065065184017 C
atom -6.5190508732625707 -0.1902768000000011 -1.9865993335745966 C
atom -5.7794207875795269 -7.7379232000000000 -11.9849988205835274 C
atom -5.7794207875795252 -4.1543768000000005 -4.9859988205835277 C
atom -6.5190508732625698 -3.7738231999999998 -8.9855993335745961 C
atom -6.7004533302599931 -7.6522986400000006 -3.3076211063484298 C
atom -5.5980183305821063 -0.2759013600000013 -10.6639770478096949 C
atom -5.5980183305821054 -3.6881986399999995 -3.6649770478096961 C
atom -6.7004533302599913 -4.2400013600000008 -10.3066211063484285 C
atom -5.5935908807842036 -7.5841161200000000 -4.2306457324741968 C
atom -6.7048807800578940 -0.3440838800000008 -9.7409524216839252 C
atom -6.7048807800578949 -3.6200161200000003 -2.7419524216839259 C
atom -5.5935908807842019 -4.3081838800000005 -11.2296457324741983 C
atom -4.2283375417141222 -7.3304137200000001 -3.8248350013811034 C
atom -8.0701341191279763 -0.5977862800000002 -10.1467631527770212 C
atom -8.0701341191279763 -3.3663137200000000 -3.1477631527770211 C
atom -4.2283375417141214 -4.5618862800000004 -10.8238350013811040 C
atom -3.9335431760037376 -6.6874367000000001 -2.6020426536259342 C
atom -8.3649284848383623 -1.2407633000000007 -11.3695555005321900 C
atom -8.3649284848383605 -2.7233367000000004 -4.3705555005321903 C
atom -3.9335431760037372 -5.2048633000000004 -9.6010426536259352 C
atom -2.6538871996931177 -6.3140184800000005 -2.2769566056857831 C
atom -9.6445844611489804 -1.6141815200000000 -11.6946415484723421 C
atom -9.6445844611489804 -2.3499184800000008 -4.6956415484723415 C
atom -2.6538871996931173 -5.5782815200000000 -9.2759566056857832 C
atom -1.6202006565993385 -6.5288727000000000 -3.1890456808287899 C
atom -10.6782710042427595 -1.3993273000000008 -10.7825524733293339 C
atom -10.6782710042427595 -2.5647727000000002 -3.7835524733293324 C
atom -1.6202006565993383 -5.3634273000000006 -10.1880456808287914 C
atom -1.8741640963957287 -7.1298302600000003 -4.3962479227121554 C
atom -10.4243075644463694 -0.7983697400000002 -9.5753502314459684 C
atom -10.4243075644463694 -3.1657302600000001 -2.5763502314459670 C
atom -1.8741640963957282 -4.7624697400000002 -11.3952479227121550 C
atom -3.1727597190640440 -7.5753951000000006 -4.7392107518097131 C
atom -9.1257119417780537 -0.3528048999999999 -9.2323874023484116 C
atom -9.1257119417780537 -3.6112951000000004 -2.2333874023484128 C
atom -3.1727597190640431 -4.3169048999999999 -11.7382107518097119 C
atom -2.5106100048443056 -0.9149142799999996 -6.8530704071898390 C
atom -9.7878616559977925 -7.0132857200000007 -7.1185277469682848 C
atom -9.7878616559977925 -4.8790142799999998 -0.1195277469682852 C
atom -2.5106100048443074 -3.0491857200000005 -13.8520704071898386 C
atom -1.3212248105242670 -1.4627529000000001 -6.3175406097012079 C
atom -10.9772468503178313 -6.4654471000000004 -7.6540575444569177 C
atom -10.9772468503178313 -5.4268529000000001 -0.6550575444569180 C
atom -1.3212248105242685 -2.5013471000000003 -13.3165406097012067 C
atom -0.4789024864731899 -2.2397165000000006 -7.0646023921229153 C
atom -11.8195691743689064 -5.6884835000000002 -6.9069957620352085 C
atom -11.8195691743689064 -6.2038165000000003 -13.9059957620352073 C
atom -0.4789024864731898 -1.7243835000000003 -0.0656023921229173 C
atom -9.4756034605290118 -6.7199423200000004 -5.7573326698342084 C
atom -2.8228682003130867 -1.2082576800000007 -8.2142654843239136 C
atom -2.8228682003130885 -2.7558423200000002 -1.2152654843239139 C
atom -9.4756034605290118 -5.1723576800000011 -12.7563326698342099 C
atom -10.3310851492571878 -5.8660751800000002 -5.0375387374374485 C
atom -1.9673865115849085 -2.0621248200000002 -8.9340594167206753 C
atom -1.9673865115849085 -1.9019751800000002 -1.9350594167206738 C
atom -10.3310851492571878 -6.0262248200000004 -12.0365387374374500 C
atom -11.4848047757607841 -5.3665985800000007 -5.5888228602790226 C
atom -0.8136668850813135 -2.5616014200000006 -8.3827752938791029 C
atom -0.8136668850813119 -1.4024985799999996 -1.3837752938790995 C
atom -11.4848047757607841 -6.5257014199999999 -12.5878228602790241 C
