#=======================================================
# FHI-aims file: pahs_geometry_fix/DPANTR01.in
# Created using the Atomic Simulation Environment (ASE)
# Tue May 25 14:20:52 2021
#=======================================================
lattice_vector -5.3412627685424567 -6.7759999999999998 0.0503417061906384 
lattice_vector -5.3412627685424550 6.7759999999999998 0.0503417061906392 
lattice_vector 0.0000000000000000 0.0000000000000000 -12.2569999999999997 
atom -5.1650010971805553 -2.7497008000000003 -11.0230676701136527 C
atom -5.5175244399043555 2.7497007999999985 -1.1332489175050700 C
atom -5.5175244399043564 -2.7497008000000007 -7.2617489175050700 C
atom -5.1650010971805544 2.7497007999999989 -4.8945676701136520 C
atom -2.9099199563019296 -0.9920064000000026 -10.5883615384673391 C
atom -7.7726055807829804 0.9920064000000003 -1.5679550491513825 C
atom -7.7726055807829821 -0.9920064000000005 -7.6964550491513837 C
atom -2.9099199563019296 0.9920064000000005 -4.4598615384673392 C
atom -6.2375266611038791 -3.5506239999999978 -11.2151995555105710 C
atom -4.4449988759810317 3.5506239999999987 -0.9411170321081508 C
atom -4.4449988759810326 -3.5506240000000013 -7.0696170321081508 C
atom -6.2375266611038782 3.5506240000000018 -5.0866995555105712 C
atom -2.2753779393990858 -0.8863008000000003 -9.3502566331627879 C
atom -8.4071475976858263 0.8863007999999998 -2.8060599544559350 C
atom -8.4071475976858263 -0.8863008000000003 -8.9345599544559349 C
atom -2.2753779393990854 0.8863007999999997 -3.2217566331627872 C
atom -6.1403156787164077 -4.6876368000000008 -12.0348833745632415 C
atom -4.5422098583685031 4.6876367999999990 -0.1214332130554801 C
atom -4.5422098583685058 -4.6876368000000008 -6.2499332130554821 C
atom -6.1403156787164059 4.6876368000000008 -5.9063833745632417 C
atom -2.4185237815960239 0.2507120000000002 -8.5865220754368785 C
atom -8.2640017554888878 -0.2507120000000012 -3.5697945121818431 C
atom -8.2640017554888878 0.2507119999999991 -9.6982945121818425 C
atom -2.4185237815960239 -0.2507119999999989 -2.4580220754368791 C
atom -4.9460093236703147 -5.0074640000000006 -0.3774757800674683 C
atom -5.7365162134145971 5.0074640000000006 -11.7788408075512532 C
atom -5.7365162134145979 -5.0074640000000006 -5.6503408075512542 C
atom -4.9460093236703129 5.0074640000000006 -6.5059757800674678 C
atom -3.1940751355883887 1.2942160000000000 -9.0229158596979975 C
atom -7.4884504014965234 -1.2942160000000003 -3.1334007279207254 C
atom -7.4884504014965225 1.2942160000000007 -9.2619007279207235 C
atom -3.1940751355883887 -1.2942160000000007 -2.8944158596979985 C
atom -3.8328901627060663 1.2074831999999995 -10.2376921916375974 C
atom -6.8496353743788454 -1.2074831999999995 -1.9186243959811256 C
atom -6.8496353743788454 1.2074831999999995 -8.0471243959811236 C
atom -3.8328901627060663 -1.2074831999999998 -4.1091921916375966 C
atom -3.6811983000794606 0.0745359999999987 -11.0211184960934112 C
atom -7.0013272370054498 -0.0745359999999994 -1.1351980915253117 C
atom -7.0013272370054507 0.0745359999999983 -7.2636980915253098 C
atom -3.6811983000794606 -0.0745359999999978 -4.8926184960934123 C
atom -2.7742518819809514 -2.2184623999999999 -11.4194391178045809 C
atom -7.9082736551039599 2.2184623999999995 -0.7368774698141418 C
atom -7.9082736551039599 -2.2184623999999995 -6.8653774698141410 C
atom -2.7742518819809519 2.2184623999999977 -5.2909391178045810 C
atom -3.9023265786971182 -3.0342927999999998 -11.6380128494571196 C
atom -6.7801989583877935 3.0342928000000002 -0.5183037381616027 C
atom -6.7801989583877935 -3.0342927999999993 -6.6468037381616041 C
atom -3.9023265786971177 3.0342927999999989 -5.5095128494571188 C
atom -3.8008425860948121 -4.2065407999999991 -0.2068654418747422 C
atom -6.8816829509900987 4.2065407999999991 -11.9494511457439803 C
atom -6.8816829509901005 -4.2065408000000000 -5.8209511457439804 C
atom -3.8008425860948112 4.2065408000000000 -6.3353654418747416 C
atom -5.2451200387086923 -1.9379360000000001 -10.4302994445207915 H
atom -5.4374054983762194 1.9379359999999988 -1.7260171430979312 H
atom -5.4374054983762203 -1.9379360000000014 -7.8545171430979295 H
atom -5.2451200387086914 1.9379360000000003 -4.3017994445207925 H
atom -7.0825144310872972 -3.3473439999999997 -10.7806918975912129 H
atom -3.6000111059976136 3.3473439999999992 -1.3756246900275091 H
atom -3.6000111059976154 -3.3473440000000010 -7.5041246900275089 H
atom -7.0825144310872963 3.3473440000000014 -4.6521918975912131 H
atom -1.6985215603965012 -1.6397920000000004 -9.0541713374313773 H
atom -8.9840039766884097 1.6397920000000001 -3.1021452501873457 H
atom -8.9840039766884114 -1.6397919999999997 -9.2306452501873455 H
atom -1.6985215603965007 1.6397919999999995 -2.9256713374313765 H
atom -1.6023788305627364 1.5313759999999994 0.0028455118571917 H
atom -9.0801467065221750 -1.5313760000000016 -12.1591620994759140 H
atom -9.0801467065221750 1.5313759999999981 -6.0306620994759141 H
atom -1.6023788305627367 -1.5313759999999990 -6.1256544881428079 H
atom -1.9655846988236241 0.2981440000000015 -7.7891832521218447 H
atom -8.7169408382612872 -0.2981440000000016 -4.3671333354968773 H
atom -8.7169408382612872 0.2981439999999984 -10.4956333354968763 H
atom -1.9655846988236241 -0.2981439999999992 -1.6606832521218451 H
atom -4.8925966959848903 -5.8409120000000003 -0.9221899971293760 H
atom -5.7899288411000214 5.8409120000000012 -11.2341265904893479 H
atom -5.7899288411000231 -5.8409119999999994 -5.1056265904893481 H
atom -4.8925966959848886 5.8409120000000003 -7.0506899971293739 H
atom -3.2902178654221523 2.0734559999999997 -8.4876045089865677 H
atom -7.3923076716627589 -2.0734560000000006 -3.6687120786321565 H
atom -7.3923076716627572 2.0734559999999997 -9.7972120786321550 H
atom -3.2902178654221523 -2.0734560000000002 -2.3591045089865674 H
atom -4.4225655723531530 1.9243839999999994 -10.5606220672741511 H
atom -6.2599599647317579 -1.9243839999999999 -1.5956945203445716 H
atom -6.2599599647317579 1.9243840000000001 -7.7241945203445708 H
atom -4.4225655723531538 -1.9243840000000005 -4.4321220672741513 H
atom -4.1127723317776912 0.0271039999999988 -11.8627838862332080 H
atom -6.5697532053072205 -0.0271039999999996 -0.2935327013855146 H
atom -6.5697532053072205 0.0271040000000000 -6.4220327013855156 H
atom -4.1127723317776912 -0.0271040000000013 -5.7342838862332073 H
