#=======================================================
# FHI-aims file: pahs_geometry_fix/TEBNAP.in
# Created using the Atomic Simulation Environment (ASE)
# Tue May 25 14:20:53 2021
#=======================================================
lattice_vector 0.0000000000000012 7.6929999999999996 0.0000000000000005 
lattice_vector -0.0000000000000000 -0.0000000000000000 12.1910000000000007 
lattice_vector 17.5931183787897858 -0.0000000000000000 -2.2069315145443569 
atom 1.9880223768032461 1.6309159999999996 2.2619627388564871 H
atom 15.6050960019865439 6.0620839999999987 7.7221057465991567 H
atom 6.8085368125916483 5.4774159999999998 2.7300715038713341 H
atom 10.7845815661981383 2.2155839999999998 7.2539969815843097 H
atom 17.4347803133806778 0.8693090000000000 0.7021978690865426 H
atom 0.1583380654091092 6.8236910000000002 9.2818706163691012 H
atom 8.9548972548040027 4.7158089999999993 2.0829048590969226 H
atom 8.6382211239857849 2.9771909999999999 7.9011636263587208 H
atom 16.8366142885018242 1.6539949999999997 3.0935235405810513 H
atom 0.7565040902879617 6.0390049999999995 6.8905449448745930 H
atom 9.5530632796828545 5.5004949999999999 -0.3084208123975855 H
atom 8.0400550991069331 2.1925049999999997 10.2924892978532281 H
atom 0.8620628005606999 2.5463830000000001 6.7553933557873265 H
atom 16.7310555782290855 5.1466170000000000 3.2286751296683169 H
atom 7.9344963888341944 6.3928829999999994 10.4276408869404946 H
atom 9.6586219899555932 1.3001169999999997 -0.4435724014848521 H
atom 2.0583948503184053 3.7387979999999992 7.8000400127983109 H
atom 15.5347235284713818 3.9542020000000000 2.1840284726573334 H
atom 6.7381643390764889 7.5852979999999999 9.3829942299295119 H
atom 10.8549540397132969 0.1077020000000000 0.6010742555261319 H
atom 3.6241823860306965 4.6927300000000001 9.0055881080038613 H
atom 13.9689359927590910 3.0002700000000000 0.9784803774517808 H
atom 5.1723768033641973 0.8462299999999998 8.1774461347239598 H
atom 12.4207415754255894 6.8467699999999985 1.8066223507316850 H
atom 6.0696258406824768 4.9312129999999987 8.5281506274821979 H
atom 11.5234925381073108 2.7617869999999995 1.4559178579734464 H
atom 2.7269333487124170 1.0847129999999998 8.6548836152456232 H
atom 14.8661850300773697 6.6082869999999998 1.3291848702100195 H
atom 6.7381643390764889 4.1465269999999990 6.2864802299295111 H
atom 10.8549540397132986 3.5464729999999998 3.6975882555261319 H
atom 2.0583948503184049 0.3000270000000000 10.8965540127983118 H
atom 15.5347235284713818 7.3929729999999996 -0.9124855273426662 H
atom 7.1252129434098643 2.2078909999999992 6.0794447366095348 H
atom 10.4679054353799224 5.4851089999999996 3.9046237488461082 H
atom 1.6713462459850306 6.0543909999999990 11.1035895061182881 H
atom 15.9217721328047563 1.6386090000000000 -1.1195210206626425 H
atom 9.3067596223797970 1.4308980000000000 5.4156732288060363 H
atom 8.2863587564099905 6.2621019999999996 4.5683952566496089 H
atom 17.0829179458048799 5.2773979999999989 9.5604294993774293 H
atom 0.5102004329849041 2.4156019999999994 0.4236389860782138 H
atom 9.8873325288798615 1.1539499999999996 3.0509364888260713 H
atom 7.7057858499099270 6.5390499999999996 6.9331319966295721 H
atom 16.5023450393048172 5.0004499999999998 -0.2658337606426060 H
atom 1.0907733394849672 2.6925499999999998 10.2499022460982481 H
atom 8.2335794012736194 1.6309159999999996 1.3931650511932412 H
atom 9.3595389775161699 6.0620839999999987 8.5909034342624029 H
atom 0.5629797881212740 5.4774159999999998 3.5988691915345807 H
atom 17.0301385906685105 2.2155839999999998 6.3851992939210609 H
atom 6.9844679963795455 2.5540759999999998 0.0259821887258905 H
atom 10.6086503824102412 5.1389240000000003 9.9580862967297552 H
atom 1.8120911930153489 6.4005759999999983 4.9660520540019313 H
atom 15.7810271857744375 1.2924240000000000 5.0180164314537103 H
atom 5.4538666974248340 3.1925949999999998 10.6169082304912514 H
atom 12.1392516813649518 4.5004049999999998 -0.6328397450356059 H
atom 3.3426924919700611 7.0390949999999988 6.5661260122365723 H
atom 14.2504258868197269 0.6539050000000001 3.4179424732190715 H
atom 3.1843544265609514 3.5695519999999994 11.3282873958674699 H
atom 14.4087639522288349 4.1234479999999989 -1.3442189104118281 H
atom 5.6122047628339429 7.4160519999999996 5.8547468468603512 H
atom 11.9809136159558456 0.2769480000000000 4.1293216385952922 H
atom 2.4982228097881496 3.3849199999999993 1.3202097249347018 H
atom 15.0948955690016362 4.3080800000000004 8.6638587605209416 H
atom 6.2983363796067442 7.2314199999999982 3.6718245177931212 H
atom 11.2947819991830425 0.4615799999999999 6.3122439676625222 H
atom 1.7329221603107943 1.8224716999999997 3.1668388458173813 C
atom 15.8601962184789951 5.8705283000000001 6.8172296396382626 C
atom 7.0636370290841004 5.6689716999999993 1.8251953969104411 C
atom 10.5294813497056872 2.0240282999999999 8.1588730885452012 C
atom 0.4961259382818722 1.4870569000000000 3.6267611312898489 C
atom 17.0969924405079148 6.2059430999999998 6.3573073541657950 C
atom 8.3004332511130201 5.3335568999999987 1.3652731114379728 C
atom 9.2926851276767657 2.3594430999999991 8.6187953740176688 C
atom 0.1495415062197135 1.7993926999999996 4.9381016821263737 C
atom 17.4435768725700733 5.8936072999999984 5.0459668033292706 C
atom 8.6470176831751822 5.6458927000000001 0.0539325606014492 C
atom 8.9461006956146054 2.0471073000000000 9.9301359248541949 C
atom 1.0626243500789037 2.3948309000000001 5.7842127365215203 C
atom 16.5304940287108835 5.2981691000000000 4.1998557489341222 C
atom 7.7339348393159906 6.2413308999999986 -0.7921784937936988 C
atom 9.8591835394737970 1.4516690999999997 10.7762469792493416 C
atom 5.2884913846642103 4.5534866999999997 7.8385997867279675 C
atom 12.3046269941255773 3.1395132999999995 2.1454686987276772 C
atom 3.5080678047306835 0.7069867000000000 9.3444344559998562 C
atom 14.0850505740591032 6.9860132999999989 0.6396340294557888 C
atom 5.6438723759157634 4.0219003999999989 6.6309983701341695 C
atom 11.9492460028740233 3.6710995999999994 3.3530701153214739 C
atom 3.1526868134791295 0.1754004000000000 10.5520358725936525 C
atom 14.4404315653106572 7.5175995999999996 -0.5679673871380072 C
atom 7.4084621493083791 2.1563478999999992 5.0600994392253709 C
atom 10.1846562294814085 5.5366520999999986 4.9239690462302725 C
atom 1.3880970400865147 6.0028478999999999 -0.0680651964975494 C
atom 16.2050213387032720 1.6901520999999997 10.0521336819531939 C
atom 8.6382211239857849 1.6809204999999996 4.6876160263587208 C
atom 8.9548972548040044 6.0120794999999996 5.2964524590969226 C
atom 0.1583380654091089 5.5274204999999990 0.3044182163691012 C
atom 17.4347803133806778 2.1655794999999998 9.6796502690865438 C
atom 8.9373041364252117 1.4755174000000000 3.3541948906114674 C
atom 8.6558142423645759 6.2174826000000003 6.6298735948441774 C
atom 17.4523734317594688 5.3220173999999982 -0.5690921624280013 C
atom 0.1407449470303187 2.3709825999999992 10.5531606478836455 C
atom 8.0031095505114749 1.7670820999999999 2.3961367540337721 C
atom 9.5900088282783162 5.9259179000000000 7.5879317314218717 C
atom 0.7934496388834202 5.6135820999999986 2.5958974886940496 C
atom 16.7996687399063660 2.0794178999999997 7.3881709967615929 C
atom 6.0731444643582346 2.7217834000000001 0.3719302411792883 C
atom 11.5199739144315529 4.9712166000000000 9.6121382442763554 C
atom 2.7234147250366596 6.5682833999999986 4.6201040015485342 C
atom 14.8697036537531257 1.1247166000000000 5.3639644839071101 C
atom 5.1547836849854072 3.0595060999999992 -0.5783613337614960 C
atom 12.4383346938043786 4.6334938999999995 10.5624298192171402 C
atom 3.6417755044094866 6.9060060999999990 5.5703955764893189 C
atom 13.9513428743803001 0.7869939000000000 4.4136729089663262 C
atom 3.8423370539276900 3.3026048999999995 -0.1845334427764872 C
atom 13.7507813248620963 4.3903951000000001 10.1686019282321318 C
atom 4.9542221354672051 7.1491048999999993 5.1765676855043088 C
atom 12.6388962433225824 0.5438951000000000 4.8075007999513337 C
atom 3.4711222561352253 3.1541299999999994 1.1347732121803986 C
atom 14.1219961226545614 4.5388699999999984 8.8492952732752457 C
atom 5.3254369332596694 7.0006300000000001 3.8572610305474231 C
atom 12.2676814455301191 0.6923699999999998 6.1268074549082208 C
atom 2.7040622948199906 2.4809925000000002 3.9837232262145332 C
atom 14.8890560839697983 5.2120074999999986 6.0003452592411097 C
atom 6.0924968945749036 6.3274925000000000 1.0083110165132894 C
atom 11.5006214842148822 1.3655074999999999 8.9757574689423549 C
atom 2.3574778627578312 2.7364001000000000 5.3243221770510569 C
atom 15.2356405160319550 4.9565998999999996 4.6597463084045883 C
atom 6.4390813266370621 6.5829000999999989 -0.3322879343232341 C
atom 11.1540370521527237 1.1100999000000000 10.3163564197788773 C
atom 3.3602856103488499 3.3256839000000000 6.2311047807220259 C
atom 14.2328327684409377 4.3673161000000000 3.7529637047336148 C
atom 5.4362735790460448 7.1721838999999985 10.9519294620057952 C
atom 12.1568447997437410 0.5208160999999999 -0.9678609765501502 C
atom 4.7096777900020257 3.3595330999999997 5.7899738335564761 C
atom 12.8834405887877601 4.3334669000000003 4.1940946518991682 C
atom 4.0868813993928681 7.2060330999999982 11.3930604091713477 C
atom 13.5062369793969204 0.4869668999999999 -1.4089919237157027 C
atom 6.4355627029613043 2.5086873000000001 4.0934864519796745 C
atom 11.1575556758284833 5.1843127000000004 5.8905820334759689 C
atom 2.3609964864335904 6.3551872999999981 0.8985477907481478 C
atom 15.2321218923561972 1.3378127000000000 9.0855206947074940 C
atom 6.7364050272386100 2.2878981999999999 2.7354626230809655 C
atom 10.8567133515511767 5.4051017999999997 7.2486058623746787 C
atom 2.0601541621562847 6.1343981999999997 2.2565716196468562 C
atom 15.5329642166335020 1.5586017999999997 7.7274968658087877 C
atom 5.7388752151612286 2.5710005999999996 1.7231753399556311 C
atom 11.8542431636285581 5.1219993999999982 8.2608931455000132 C
atom 3.0576839742336657 6.4175006000000003 3.2688589027721915 C
atom 14.5354344045561223 1.2754993999999999 6.7152095826834524 C
atom 4.3947609710216895 2.7648641999999999 2.1197566076668197 C
atom 13.1983574077680981 4.9281357999999997 7.8643118777888237 C
atom 4.4017982183732052 6.6113641999999988 2.8722776350610020 C
atom 13.1913201604165824 1.0816357999999997 7.1117908503946410 C
atom 4.0534544744731669 2.7187061999999993 3.5304012790489798 C
atom 13.5396639043166189 4.9742937999999981 6.4536672064066636 C
atom 4.7431047149217278 6.5652062000000004 1.4616329636788414 C
atom 12.8500136638680598 1.1277938000000001 8.5224355217768029 C
atom 5.0650587812535806 2.8702582999999993 4.4726534169626788 C
atom 12.5280595975362061 4.8227416999999999 5.5114150684929637 C
atom 3.7315004081413150 6.7167582999999986 0.5193808257651424 C
atom 13.8616179706484726 0.9762417000000001 9.4646876596905027 C
atom 3.0084232427730542 3.8734254999999993 7.4711805110129159 C
atom 14.5846951360167321 3.8195744999999999 2.5128879744427288 C
atom 5.7881359466218401 0.0269255000000000 9.7118537317149070 C
atom 11.8049824321679484 7.6660744999999988 0.2722147537407372 C
atom 3.9778040654443716 4.4673251000000000 8.2651226845615220 C
atom 13.6153143133454169 3.2256749000000000 1.7189458008941227 C
atom 4.8187551239505222 0.6208250999999998 8.9179115581662991 C
atom 12.7743632548392636 7.0721748999999985 1.0661569272893432 C
