#=======================================================
# FHI-aims file: pahs_geometry_fix/VEBJAO.in
# Created using the Atomic Simulation Environment (ASE)
# Tue May 25 14:20:53 2021
#=======================================================
lattice_vector -0.0000000000000010 -6.4619999999999997 -0.0000000000000004 
lattice_vector -20.4090464501415596 3.2309999999999999 3.0924079607911041 
lattice_vector 0.0000000000000000 0.0000000000000000 -21.0779999999999994 
atom -16.2909090574319961 -1.6671959999999997 0.7210556824626753 C
atom -4.1181373927095679 -1.5638039999999993 -18.7066477216715690 C
atom -4.1181373927095688 -4.8981960000000004 -8.1676477216715728 C
atom -16.2909090574319961 1.6671959999999999 -9.8179443175373251 C
atom -15.9574252384366808 -2.5440894000000003 -0.3896976636166519 C
atom -4.4516212117048788 -0.6869105999999996 -17.5958943755922448 C
atom -4.4516212117048788 0.6869106000000004 -7.0568943755922442 C
atom -15.9574252384366826 -3.9179105999999995 -10.9286976636166511 C
atom -17.0154302064120238 -2.9266397999999998 -1.3380900349292424 C
atom -3.3936162437295407 -0.3043601999999998 -16.6475020042796551 C
atom -3.3936162437295403 0.3043602000000005 -6.1085020042796581 C
atom -17.0154302064120238 -3.5353601999999991 -11.8770900349292390 C
atom -17.3448322161173074 2.2184046000000004 -1.5769471704420721 C
atom -3.0642142340242535 -5.4494046000000003 -16.4086448687668245 C
atom -3.0642142340242526 -1.0125954000000004 -5.8696448687668257 C
atom -17.3448322161173074 -2.2184045999999991 -12.1159471704420714 C
atom -18.3436509493872357 1.9043514000000004 -2.4858281248409582 C
atom -2.0653955007543257 -5.1353513999999993 -15.4997639143679393 C
atom -2.0653955007543252 -1.3266486000000004 -4.9607639143679396 C
atom -18.3436509493872357 -1.9043513999999993 -13.0248281248409565 C
atom -18.9869440934956977 2.8910988000000009 -3.1682414259168232 C
atom -1.4221023566458642 -6.1220987999999998 -14.8173506132920778 C
atom -1.4221023566458633 -0.3399011999999999 -4.2783506132920746 C
atom -18.9869440934956977 -2.8910988000000004 -13.7072414259168216 C
atom -18.6848902060336002 -2.2558841999999992 -2.9168092637365293 C
atom -1.7241562441079636 -0.9751157999999999 -15.0687827754723678 C
atom -1.7241562441079643 -5.4868842000000004 -4.5297827754723663 C
atom -18.6848902060336002 2.2558842000000006 -13.4558092637365299 C
atom -17.6860714727636719 -1.9528164000000003 -2.0142517093376453 C
atom -2.7229749773778891 -1.2781835999999991 -15.9713403298712500 C
atom -2.7229749773778895 -5.1838163999999995 -5.4323403298712503 C
atom -17.6860714727636719 1.9528164000000008 -12.5532517093376459 C
atom -14.6675735027877359 -2.9324555999999995 -0.5830300467386497 C
atom -5.7414729473538237 -0.2985443999999994 -17.4025619924702468 C
atom -5.7414729473538237 0.2985444000000008 -6.8635619924702462 C
atom -14.6675735027877359 -3.5295444000000002 -11.1220300467386490 C
atom -13.6030376399483526 -2.4032177999999997 0.2210423540264854 C
atom -6.8060088101932079 -0.8277821999999998 -18.2066343932353796 C
atom -6.8060088101932052 0.8277822000000002 -7.6676343932353817 C
atom -13.6030376399483526 -4.0587822000000005 -10.3179576459735127 C
atom -13.9299905640796187 -1.4642892000000010 1.2528175295583608 C
atom -6.4790558860619418 -1.7667107999999989 -19.2384095687672527 C
atom -6.4790558860619418 -4.6952892000000004 -8.6994095687672566 C
atom -13.9299905640796187 1.4642892000000001 -9.2861824704416414 C
atom -15.3218875319792751 -1.1256804000000009 1.4932289524843108 C
atom -5.0871589181622889 -2.1053195999999987 -19.4788209916932082 C
atom -5.0871589181622889 -4.3566804000000001 -8.9398209916932085 C
atom -15.3218875319792733 1.1256804000000009 -9.0457710475156894 C
atom -15.6329213998794341 -0.1880441999999993 -18.4837427501932297 C
atom -4.7761250502621264 -3.0429557999999997 0.4981507109843327 C
atom -4.7761250502621264 -3.4190442000000001 -10.0408492890156644 C
atom -15.6329213998794341 0.1880442000000002 -7.9447427501932291 C
atom -16.3211144461782069 -0.6106590000000000 -17.3508603537553547 C
atom -4.0879320039633535 -2.6203409999999998 -0.6347316854535422 C
atom -4.0879320039633535 -3.8416589999999999 -11.1737316854535447 C
atom -16.3211144461782069 0.6106590000000008 -6.8118603537553559 C
atom -16.6231683336403009 0.2907900000000012 -16.3502593159356451 C
atom -3.7858781165012600 -3.5217900000000002 -1.6353327232732504 C
atom -3.7858781165012600 -2.9402099999999995 -12.1743327232732508 C
atom -16.6231683336403009 -0.2907900000000004 -5.8112593159356454 C
atom -16.2566218593957572 1.6167924000000005 -16.4648173629114538 C
atom -4.1524245907458042 -4.8477924000000003 -1.5207746762974415 C
atom -4.1524245907458042 -1.6142075999999990 -12.0597746762974403 C
atom -16.2566218593957608 -1.6167924000000005 -5.9258173629114541 C
atom -15.5721024414580071 2.0348838000000002 -17.5634183259163876 C
atom -4.8369440086835551 -5.2658837999999992 -0.4221737132925095 C
atom -4.8369440086835542 -1.1961162000000005 -10.9611737132925064 C
atom -15.5721024414580089 -2.0348837999999994 -7.0244183259163906 C
atom -15.2700485539959150 1.1612214000000005 -18.5640193637360973 C
atom -5.1389978961456464 -4.3922214000000004 0.5784273245272008 C
atom -5.1389978961456455 -2.0697786000000007 -9.9605726754728003 C
atom -15.2700485539959150 -1.1612213999999992 -8.0250193637360976 C
atom -12.9038237085665042 -0.9227735999999995 -19.0785303427102164 C
atom -7.5052227415750572 -2.3082263999999997 1.0929383035013205 C
atom -7.5052227415750572 -4.1537736000000001 -9.4460616964986794 C
atom -12.9038237085665042 0.9227736000000009 -8.5395303427102167 C
atom -11.5523366526381306 -1.2407039999999996 -19.2938485978738008 C
atom -8.8567097975034290 -1.9902960000000003 1.3082565586649038 C
atom -8.8567097975034308 -4.4717039999999999 -9.2307434413350933 C
atom -11.5523366526381288 1.2407040000000000 -8.7548485978738029 C
atom -11.2233428238618469 -2.1970799999999997 0.7604981857982441 C
atom -9.1857036262797163 -1.0339200000000000 -18.7460902250071406 C
atom -9.1857036262797145 1.0339200000000008 -8.2070902250071409 C
atom -11.2233428238618469 -4.2649200000000000 -9.7785018142017552 C
atom -9.8849175576615629 -2.5621829999999997 0.5302966717295622 C
atom -10.5241288924799967 -0.6688170000000003 -18.5158887109384587 C
atom -10.5241288924799967 0.6688170000000002 -7.9768887109384581 C
atom -9.8849175576615629 -3.8998170000000001 -10.0087033282704372 C
atom -9.5518419195952564 -3.5502227999999993 -0.5024062261905480 C
atom -10.8572045305463103 0.3192228000000000 -17.4831858130183484 C
atom -10.8572045305463067 -0.3192227999999995 -6.9441858130183478 C
atom -9.5518419195952564 -2.9117771999999995 -11.0414062261905475 C
atom -9.6714389317930838 -3.2549093999999990 -1.8311689155403110 C
atom -10.7376075183484758 0.0239094000000001 -16.1544231236685860 C
atom -10.7376075183484758 -0.0239094000000009 -5.6154231236685845 C
atom -9.6714389317930838 -3.2070905999999990 -12.3701689155403116 C
atom -9.3706095871180004 -4.1738057999999993 -2.7936440088823735 C
atom -11.0384368630235628 0.9428058000000001 -15.1919480303265235 C
atom -11.0384368630235628 -0.9428057999999994 -4.6529480303265265 C
atom -9.3706095871180004 -2.2881942000000004 -13.3326440088823706 C
atom -8.9244678317178998 1.0332737999999995 -2.4544386469052659 C
atom -11.4845786184236616 -4.2642737999999989 -15.5311533923036293 C
atom -11.4845786184236616 -2.1977261999999986 -4.9921533923036323 C
atom -8.9244678317179016 -1.0332738000000015 -12.9934386469052683 C
atom -8.7901763060759688 0.7056504000000008 -1.1447648912872748 C
atom -11.6188701440655890 -3.9366504000000004 -16.8408271479216261 C
atom -11.6188701440655890 -2.5253496000000011 -6.3018271479216237 C
atom -8.7901763060759723 -0.7056503999999992 -11.6837648912872698 C
atom -9.1122310590592051 -4.8271139999999999 -0.1643190936659889 C
atom -11.2968153910823563 1.5961140000000007 -17.8212729455429084 C
atom -11.2968153910823563 -1.5961140000000000 -7.2822729455429069 C
atom -9.1122310590592033 -1.6348859999999998 -10.7033190936659857 C
atom -12.2784905253341670 -2.7405341999999990 0.0182372773711410 C
atom -8.1305559248073962 -0.4904658000000001 -18.0038293165800383 C
atom -8.1305559248073944 0.4904658000000005 -7.4648293165800395 C
atom -12.2784905253341670 -3.7214657999999998 -10.5207627226288540 C
atom -14.3140888182712853 -3.8746152000000000 -1.6904905526195546 C
atom -6.0949576318702761 0.6436152000000008 -16.2951014865893420 C
atom -6.0949576318702761 -0.6436152000000001 -5.7561014865893441 C
atom -14.3140888182712853 -2.5873847999999997 -12.2294905526195521 C
atom -13.9075406129844659 1.3001544000000003 -1.4190589191985099 C
atom -6.5015058371570955 -4.5311543999999992 -16.5665331200103871 C
atom -6.5015058371570946 -1.9308455999999998 -6.0275331200103857 C
atom -13.9075406129844659 -1.3001543999999996 -11.9580589191985105 C
atom -13.6789592927428778 0.4012902000000011 -2.4317130883593725 C
atom -6.7300871573986827 -3.6322901999999999 -15.5538789508495245 C
atom -6.7300871573986827 -2.8297098000000003 -5.0148789508495257 C
atom -13.6789592927428778 -0.4012901999999997 -12.9707130883593713 C
atom -13.8720288721612182 0.7812558000000008 -3.7282651090502856 C
atom -6.5370175779803432 -4.0122558000000001 -14.2573269301586105 C
atom -6.5370175779803423 -2.4497441999999996 -3.7183269301586104 C
atom -13.8720288721612182 -0.7812558000000002 -14.2672651090502853 C
atom -14.2214317473876424 2.0671938000000005 -4.0125710847615421 C
atom -6.1876147027539217 -5.2981938000000000 -13.9730209544473531 C
atom -6.1876147027539208 -1.1638061999999998 -3.4340209544473534 C
atom -14.2214317473876424 -2.0671937999999996 -14.5515710847615427 C
atom -14.4483803439132164 -3.4836642000000002 -3.0064877082375472 C
atom -5.9606661062283415 0.2526642000000005 -14.9791043309713494 C
atom -5.9606661062283441 -0.2526642000000002 -4.4401043309713488 C
atom -14.4483803439132164 -2.9783357999999995 -13.5454877082375447 C
atom -17.7277059275219599 -1.4455494000000002 1.0062108029023684 C
atom -2.6813405226196019 -1.7854505999999997 -18.9918028421112624 C
atom -2.6813405226196023 -4.6765493999999990 -8.4528028421112662 C
atom -17.7277059275219599 1.4455494000000007 -9.5327891970976335 C
atom -18.5342714432315567 -2.5027325999999994 1.3560651655128340 C
atom -1.8747750069100071 -0.7282674000000005 -19.3416572047217272 C
atom -1.8747750069100080 -5.7337325999999997 -8.8026572047217311 C
atom -18.5342714432315532 2.5027326000000003 -9.1829348344871651 C
atom -19.8665739954967968 -2.3095188000000006 1.6527885571932759 C
atom -0.5424724546447638 -0.9214811999999996 -19.6383805964021718 C
atom -0.5424724546447646 -5.5405188000000001 -9.0993805964021721 C
atom -19.8665739954967968 2.3095187999999998 -8.8862114428067240 C
atom -20.4057810027095385 -1.0759229999999997 1.6038063755173753 C
atom -0.0032654474320217 -2.1550770000000004 -19.5893984147262721 C
atom -0.0032654474320221 -4.3069229999999994 -9.0503984147262742 C
atom -20.4057810027095385 1.0759229999999997 -8.9351936244826220 C
atom -19.6396253989712228 -0.0058158000000000 1.2621827806692758 C
atom -0.7694210511703387 -3.2251841999999988 -19.2477748198781740 C
atom -0.7694210511703387 -3.2368158000000000 -8.7087748198781743 C
atom -19.6396253989712228 0.0058158000000003 -9.2768172193307201 C
atom -18.2930365141908844 -0.1861056000000004 0.9906961034162797 C
atom -2.1160099359506774 -3.0448943999999996 -18.9762881426251759 C
atom -2.1160099359506774 -3.4171056000000002 -8.4372881426251780 C
atom -18.2930365141908844 0.1861056000000011 -9.5483038965837181 C
atom -16.8456269399468432 1.4869062000000006 -1.1087750691630245 H
atom -3.5634195101947190 -4.7179061999999989 -16.8768169700458728 H
atom -3.5634195101947186 -1.7440938000000004 -6.3378169700458740 H
atom -16.8456269399468432 -1.4869061999999986 -11.6477750691630249 H
atom -18.5885595067889327 0.9524988000000004 -2.6489602293114638 H
atom -1.8204869433526290 -4.1834987999999997 -15.3366318098974332 H
atom -1.8204869433526287 -2.2785011999999996 -4.7976318098974335 H
atom -18.5885595067889327 -0.9524988000000000 -13.1879602293114608 H
atom -19.6865662058065460 2.6629902000000008 -3.8610898810209009 H
atom -0.7224802443350165 -5.8939902000000002 -14.1245021581879939 H
atom -0.7224802443350156 -0.5680097999999988 -3.5855021581879942 H
atom -19.6865662058065460 -2.6629902000000012 -14.4000898810209002 H
atom -19.1763400445530117 -1.5037074000000001 -3.3777252800406816 H
atom -1.2327064055885530 -1.7272925999999986 -14.6078667591682159 H
atom -1.2327064055885535 -4.7347074000000013 -4.0688667591682188 H
atom -19.1763400445530081 1.5037074000000001 -13.9167252800406782 H
atom -17.4293256684208941 -1.0106567999999989 -1.8508054014843982 H
atom -2.9797207817206663 -2.2203431999999990 -16.1347866377244991 H
atom -2.9797207817206668 -4.2416568000000003 -5.5957866377245002 H
atom -17.4293256684208941 1.0106568000000007 -12.3898054014843986 H
atom -16.5966365732551147 -1.5657425999999988 -17.2690646462846722 H
atom -3.8124098768864454 -1.6652574000000002 -0.7165273929242195 H
atom -3.8124098768864458 -4.7967426000000000 -11.2555273929242219 H
atom -16.5966365732551147 1.5657426000000003 -6.7300646462846743 H
atom -17.0782900694784558 -0.0168011999999995 -15.5182750184100033 H
atom -3.3307563806631055 -3.2141987999999992 -2.4673170207988919 H
atom -3.3307563806631055 -3.2478012000000001 -13.0063170207988907 H
atom -17.0782900694784558 0.0168012000000005 -4.9792750184100036 H
atom -16.4905095317143804 2.2752702000000005 -15.7464511676807870 H
atom -3.9185369184271814 -5.5062701999999994 -2.2391408715281096 H
atom -3.9185369184271810 -0.9557297999999997 -12.7781408715281088 H
atom -16.4905095317143804 -2.2752702000000000 -5.2074511676807882 H
atom -15.2863757911560310 -3.4739711999999998 -17.6404368373674636 H
atom -5.1226706589855269 0.2429711999999995 -0.3451552018414318 H
atom -5.1226706589855295 -0.2429711999999998 -10.8841552018414340 H
atom -15.2863757911560310 -2.9880287999999990 -7.1014368373674621 H
atom -14.7843132484825439 1.4694588000000002 1.6984357267970742 H
atom -5.6247332016590184 -4.7004587999999989 -19.6840277660059684 H
atom -5.6247332016590175 -1.7615412000000001 -9.1450277660059722 H
atom -14.7843132484825457 -1.4694587999999993 -8.8405642732029257 H
atom -13.1311804860210799 -0.2817431999999999 -18.3421835180270030 H
atom -7.2778659641204833 -2.9492567999999997 0.3565914788181059 H
atom -7.2778659641204841 -3.5127431999999992 -10.1824085211818911 H
atom -13.1311804860210799 0.2817431999999999 -7.8031835180270059 H
atom -9.9922691419893095 -2.3489370000000003 -2.0924028623966762 H
atom -10.4167773081522519 -0.8820629999999996 -15.8931891768122195 H
atom -10.4167773081522519 0.8820630000000004 -5.3541891768122198 H
atom -9.9922691419893095 -4.1130629999999995 -12.6314028623966763 H
atom -9.4575521249956012 -3.9198492000000003 -3.7584895509694016 H
atom -10.9514943251459602 0.6888492000000009 -14.2271024882394936 H
atom -10.9514943251459602 -0.6888491999999994 -3.6881024882394966 H
atom -9.4575521249955994 -2.5421507999999995 -14.2974895509694004 H
atom -8.6983355970503311 0.3644567999999993 -3.1674141271108316 H
atom -11.7107108530912303 -3.5954568000000000 -14.8181779120980650 H
atom -11.7107108530912303 -2.8665431999999997 -4.2791779120980644 H
atom -8.6983355970503311 -0.3644568000000001 -13.7064141271108308 H
atom -8.4575088489386641 -0.1996757999999994 -0.8916479410481678 H
atom -11.9515376012028955 -3.0313241999999994 -17.0939440981607298 H
atom -11.9515376012028955 -3.4306757999999995 -6.5549440981607301 H
atom -8.4575088489386641 0.1996758000000009 -11.4306479410481643 H
atom -9.0412075774127096 1.3848066000000006 0.8029385266304583 H
atom -11.3678388727288482 -4.6158066000000009 -18.7885305658393555 H
atom -11.3678388727288482 -1.8461934000000004 -8.2495305658393541 H
atom -9.0412075774127132 -1.3848065999999994 -9.7360614733695385 H
atom -12.0617464520336615 -3.3847956000000003 -0.7207170951724580 H
atom -8.3472999981078981 0.1537956000000009 -17.2648749440364391 H
atom -8.3472999981078981 -0.1537955999999996 -6.7258749440364403 H
atom -12.0617464520336615 -3.0772044000000003 -11.2597170951724568 H
atom -13.8046790188757509 1.0074258000000011 -0.4734878553208977 H
atom -6.6043674312658114 -4.2384257999999999 -17.5121041838879989 H
atom -6.6043674312658114 -2.2235741999999994 -6.9731041838879975 H
atom -13.8046790188757491 -1.0074258000000003 -11.0124878553208951 H
atom -13.3597618062626662 -0.5221295999999999 -2.2313579488661421 H
atom -7.0492846438788934 -2.7088703999999999 -15.7542340903427540 H
atom -7.0492846438788943 -3.7531295999999994 -5.2152340903427534 H
atom -13.3597618062626662 0.5221296000000005 -12.7703579488661418 H
atom -13.7883517817156367 0.1189008000000006 -4.4660271816895314 H
atom -6.6206946684259256 -3.3499007999999999 -13.5195648575193665 H
atom -6.6206946684259256 -3.1120992000000007 -2.9805648575193642 H
atom -13.7883517817156385 -0.1189007999999990 -15.0050271816895293 H
atom -14.3189869894193187 -4.1175863999999995 -4.9652695747089624 H
atom -6.0900594607222391 0.8865864000000002 -13.0203224644999338 H
atom -6.0900594607222418 -0.8865863999999992 -2.4813224644999341 H
atom -14.3189869894193187 -2.3444136000000002 -15.5042695747089621 H
atom -14.6863498255218676 -2.5350426000000001 -3.2107194314147218 H
atom -5.7226966246196955 -0.6959573999999997 -14.7748726077941726 H
atom -5.7226966246196929 0.6959574000000008 -4.2358726077941737 H
atom -14.6863498255218676 -3.9269574000000005 -13.7497194314147215 H
atom -18.1313968663057636 -3.4229213999999994 1.4067344323668169 H
atom -2.2776495838357964 0.1919214000000004 -19.3923264715757142 H
atom -2.2776495838357964 -0.1919213999999996 -8.8533264715757127 H
atom -18.1313968663057636 -3.0390786000000003 -9.1322655676331852 H
atom -0.0204090464501426 -6.3282366000000003 -1.2088925920392091 H
atom -20.3886374036914191 3.0972366000000018 -16.7766994471696869 H
atom -20.3886374036914226 -3.0972366000000005 -6.2376994471696863 H
atom -0.0204090464501416 -0.1337633999999993 -11.7478925920392108 H
atom -0.9755524203167686 -4.1931918000000001 -1.2475464994741861 H
atom -19.4334940298247929 0.9621918000000008 -16.7380455397347099 H
atom -19.4334940298247929 -0.9621918000000006 -6.1990455397347102 H
atom -0.9755524203167683 -2.2688081999999996 -11.7865464994741824 H
atom -20.0620926604891565 0.8982180000000008 1.1828652254576564 H
atom -0.3469537896524053 -4.1292180000000007 -19.1684572646665501 H
atom -0.3469537896524049 -2.3327819999999999 -8.6294572646665522 H
atom -20.0620926604891565 -0.8982180000000004 -9.3561347745423458 H
atom -17.7028068908527878 0.6061356000000008 0.7874424651902017 H
atom -2.7062395592887727 -3.8371355999999994 -18.7730345043990994 H
atom -2.7062395592887722 -2.6248644000000008 -8.2340345043990997 H
atom -17.7028068908527878 -0.6061355999999992 -9.7515575348097983 H
