#=======================================================
# FHI-aims file: pahs_geometry_fix/DUPHAX.in
# Created using the Atomic Simulation Environment (ASE)
# Tue May 25 14:20:52 2021
#=======================================================
lattice_vector 0.0000000000000000 0.0000000000000000 -4.9500000000000002 
lattice_vector -0.0000000000000034 -21.3129999999999988 -0.0000000000000013 
lattice_vector -22.5199999999999996 0.0000000000000000 -0.0000000000000014 
atom -3.9860400000000018 -6.4791520000000009 -1.5543000000000005 H
atom -15.2460400000000025 -14.8338479999999997 -3.3957000000000015 H
atom -3.9860400000000062 -17.1356520000000003 -0.9207000000000015 H
atom -15.2460400000000007 -4.1773479999999985 -4.0293000000000010 H
atom -1.8015999999999999 -5.6479450000000000 -0.9652500000000003 H
atom -13.0616000000000039 -15.6650549999999988 -3.9847500000000018 H
atom -1.8016000000000041 -16.3044449999999976 -1.5097500000000013 H
atom -13.0616000000000021 -5.0085550000000021 -3.4402500000000016 H
atom -0.4729200000000015 -6.6709689999999986 -4.1926500000000004 H
atom -11.7329200000000000 -14.6420310000000011 -0.7573500000000012 H
atom -0.4729200000000057 -17.3274689999999971 -3.2323500000000012 H
atom -11.7329199999999982 -3.9855310000000035 -1.7176500000000008 H
atom -0.2702400000000016 -8.3333829999999995 -2.3512500000000003 H
atom -11.5302400000000027 -12.9796169999999993 -2.5987500000000021 H
atom -0.2702400000000033 -18.9898829999999990 -0.1237500000000013 H
atom -11.5302399999999974 -2.3231169999999994 -4.8262500000000008 H
atom -1.0134000000000050 -10.3368050000000018 -1.3315500000000009 H
atom -12.2734000000000005 -10.9761949999999988 -3.6184500000000019 H
atom -1.0134000000000043 -20.9933049999999994 -1.1434500000000012 H
atom -12.2733999999999988 -0.3196950000000003 -3.8065500000000005 H
atom -0.5855200000000025 -12.1057839999999999 -2.2225500000000009 H
atom -11.8455200000000023 -9.2072160000000007 -2.7274500000000010 H
atom -0.5855199999999983 -1.4492839999999989 -0.2524500000000004 H
atom -11.8455200000000040 -19.8637159999999966 -4.6975500000000014 H
atom -21.5966799999999992 -13.4911289999999990 -0.9207000000000024 H
atom -10.3366799999999994 -7.8218709999999998 -4.0293000000000019 H
atom -21.5966799999999992 -2.8346290000000001 -1.5543000000000013 H
atom -10.3366800000000012 -18.4783709999999992 -3.3957000000000015 H
atom -22.4749600000000029 -14.8764739999999982 -4.0986000000000029 H
atom -11.2149600000000014 -6.4365260000000006 -0.8514000000000019 H
atom -22.4749599999999994 -4.2199740000000014 -3.3264000000000014 H
atom -11.2149600000000031 -17.0930259999999983 -1.6236000000000017 H
atom -2.3195600000000018 -15.0682910000000003 -3.7570500000000009 H
atom -13.5795600000000007 -6.2447090000000003 -1.1929500000000013 H
atom -2.3195599999999978 -4.4117909999999991 -3.6679500000000007 H
atom -13.5795600000000025 -16.9012090000000015 -1.2820500000000021 H
atom -4.2788000000000039 -15.3027339999999992 -3.6382500000000015 H
atom -15.5388000000000002 -6.0102660000000006 -1.3117500000000015 H
atom -4.2787999999999995 -4.6462340000000015 -3.7867500000000009 H
atom -15.5388000000000037 -16.6667659999999991 -1.1632500000000019 H
atom -6.1704800000000031 -16.5388880000000000 -2.7769500000000011 H
atom -17.4304799999999993 -4.7741119999999997 -2.1730500000000013 H
atom -6.1704800000000013 -5.8823879999999997 -4.6480500000000005 H
atom -17.4304800000000029 -15.4306119999999982 -0.3019500000000023 H
atom -8.5350800000000024 -17.0290869999999970 -2.7670500000000011 H
atom -19.7950799999999987 -4.2839129999999992 -2.1829500000000017 H
atom -8.5350800000000042 -6.3725870000000002 -4.6579500000000014 H
atom -19.7950800000000022 -14.9404130000000013 -0.2920500000000024 H
atom -9.9988800000000015 -15.8994979999999995 -4.3758000000000017 H
atom -21.2588799999999978 -5.4135019999999994 -0.5742000000000010 H
atom -9.9988799999999998 -5.2429980000000000 -3.0492000000000008 H
atom -21.2588800000000013 -16.0700019999999988 -1.9008000000000023 H
atom -9.1656399999999998 -14.3223359999999982 -0.9999000000000012 H
atom -20.4256400000000014 -6.9906639999999989 -3.9501000000000022 H
atom -9.1656399999999980 -3.6658360000000032 -1.4751000000000012 H
atom -20.4256400000000014 -17.6471640000000001 -3.4749000000000021 H
atom -8.3774400000000018 -13.1074949999999983 -2.3067000000000011 H
atom -19.6374400000000016 -8.2055050000000023 -2.6433000000000022 H
atom -8.3774400000000000 -2.4509949999999998 -0.1683000000000013 H
atom -19.6374400000000016 -18.8620049999999999 -4.7817000000000016 H
atom -9.4358800000000027 -12.2976010000000002 -3.6481500000000016 H
atom -20.6958800000000025 -9.0153990000000004 -1.3018500000000020 H
atom -9.4358800000000009 -1.6411009999999990 -3.7768500000000005 H
atom -20.6958800000000025 -19.6718989999999998 -1.1731500000000024 H
atom -10.7870800000000013 -11.2958900000000000 -0.4405500000000007 H
atom -22.0470800000000011 -10.0171099999999988 -4.5094500000000028 H
atom -10.7870799999999996 -0.6393900000000006 -2.0344500000000005 H
atom -22.0470800000000011 -20.6736100000000000 -2.9155500000000028 H
atom -9.8637600000000027 -9.5055979999999991 -1.8166500000000014 H
atom -21.1237600000000008 -11.8074019999999997 -3.1333500000000023 H
atom -9.8637600000000010 -20.1620979999999967 -0.6583500000000019 H
atom -21.1237599999999972 -1.1509020000000034 -4.2916500000000006 H
atom -7.9495600000000035 -7.9923749999999991 -2.4106500000000008 H
atom -19.2095599999999997 -13.3206249999999997 -2.5393500000000020 H
atom -7.9495600000000026 -18.6488750000000003 -0.0643500000000017 H
atom -19.2095599999999997 -2.6641249999999999 -4.8856500000000009 H
atom -5.7425999999999986 -7.2464199999999988 -2.0196000000000009 H
atom -17.0026000000000010 -14.0665799999999983 -2.9304000000000023 H
atom -5.7426000000000030 -17.9029199999999982 -0.4554000000000007 H
atom -17.0026000000000010 -3.4100800000000007 -4.4946000000000010 H
atom -3.4230400000000016 -6.9586945000000000 -0.7672500000000009 C
atom -14.6830400000000019 -14.3543054999999988 -4.1827500000000022 C
atom -3.4230400000000034 -17.6151944999999976 -1.7077500000000012 C
atom -14.6830400000000001 -3.6978055000000021 -3.2422500000000016 C
atom -2.1889439999999998 -6.4706267999999989 -0.4415399999999997 C
atom -13.4489440000000009 -14.8423732000000026 -4.5084600000000021 C
atom -2.1889440000000016 -17.1271267999999992 -2.0334600000000012 C
atom -13.4489439999999991 -4.1858732000000005 -2.9165400000000012 C
atom -1.4300199999999987 -7.0695221000000021 -4.4371799999999997 C
atom -12.6900200000000023 -14.2434778999999985 -0.5128200000000013 C
atom -1.4300200000000027 -17.7260220999999980 -2.9878200000000010 C
atom -12.6900200000000005 -3.5869779000000022 -1.9621800000000009 C
atom -1.9051919999999989 -8.1863232999999997 -3.7540800000000005 C
atom -13.1651920000000029 -13.1266766999999991 -1.1959200000000021 C
atom -1.9051920000000031 -18.8428232999999992 -3.6709200000000015 C
atom -13.1651920000000011 -2.4701767000000001 -1.2790800000000009 C
atom -1.1777960000000016 -8.7937438000000014 -2.6853750000000005 C
atom -12.4377960000000023 -12.5192561999999992 -2.2646250000000019 C
atom -1.1777960000000034 -19.4502437999999991 -4.7396250000000011 C
atom -12.4377960000000005 -1.8627562000000006 -0.2103750000000008 C
atom -1.5989200000000006 -9.9254640999999992 -2.1072150000000005 C
atom -12.8589200000000012 -11.3875358999999996 -2.8427850000000019 C
atom -1.5989200000000021 -20.5819641000000004 -0.3677850000000016 C
atom -12.8589199999999995 -0.7310358999999998 -4.5822150000000006 C
atom -2.8262600000000031 -10.5712479999999989 -2.4858900000000004 C
atom -14.0862599999999993 -10.7417520000000000 -2.4641100000000016 C
atom -2.8262600000000022 -21.2277479999999983 -4.9391100000000012 C
atom -14.0862599999999993 -0.0852520000000024 -0.0108900000000008 C
atom -3.2563920000000031 -11.7754324999999991 -1.9126800000000008 C
atom -14.5163920000000033 -9.5375674999999998 -3.0373200000000011 C
atom -3.2563919999999964 -1.1189324999999997 -0.5623200000000005 C
atom -14.5163920000000051 -20.1940674999999992 -4.3876800000000014 C
atom -2.3646000000000043 -12.6833662999999977 -1.1850300000000007 C
atom -13.6246000000000009 -8.6296337000000030 -3.7649700000000013 C
atom -2.3645999999999998 -2.0268662999999991 -1.2899700000000007 C
atom -13.6246000000000027 -19.2861337000000006 -3.6600300000000026 C
atom -0.9616040000000011 -12.7004166999999981 -1.4503500000000011 C
atom -12.2216040000000010 -8.6125833000000025 -3.4996500000000017 C
atom -0.9616039999999969 -2.0439167000000018 -1.0246500000000001 C
atom -12.2216040000000028 -19.2690832999999984 -3.9253500000000026 C
atom -0.1171040000000068 -13.4996541999999984 -0.7137900000000014 C
atom -11.3771040000000010 -7.8133458000000005 -4.2362100000000016 C
atom -0.1171040000000001 -2.8431542000000016 -1.7612100000000004 C
atom -11.3771040000000028 -18.4698457999999981 -3.1887900000000018 C
atom -0.6102920000000026 -14.3244672999999967 -4.6891350000000012 C
atom -11.8702920000000045 -6.9885326999999986 -0.2608650000000005 C
atom -0.6102920000000008 -3.6679673000000004 -2.7358650000000004 C
atom -11.8702920000000063 -17.6450326999999980 -2.2141350000000020 C
atom -1.9614920000000013 -14.4097192999999972 -4.4970750000000006 C
atom -13.2214919999999996 -6.9032806999999989 -0.4529250000000014 C
atom -1.9614919999999996 -3.7532193000000027 -2.9279250000000006 C
atom -13.2214920000000014 -17.5597806999999975 -2.0220750000000018 C
atom -2.8690480000000012 -13.6424512999999994 -0.2925450000000012 C
atom -14.1290479999999992 -7.6705486999999994 -4.6574550000000015 C
atom -2.8690479999999994 -2.9859513000000000 -2.1824550000000000 C
atom -14.1290480000000009 -18.3270486999999989 -2.7675450000000019 C
atom -4.3215880000000011 -13.8662378000000004 -0.2306700000000010 C
atom -15.5815880000000000 -7.4467622000000002 -4.7193300000000020 C
atom -4.3215879999999967 -3.2097377999999988 -2.2443300000000006 C
atom -15.5815880000000018 -18.1032621999999961 -2.7056700000000018 C
atom -4.8823360000000022 -14.7890906999999991 -4.3560000000000008 C
atom -16.1423360000000002 -6.5239093000000006 -0.5940000000000014 C
atom -4.8823359999999978 -4.1325906999999988 -3.0690000000000008 C
atom -16.1423360000000038 -17.1804093000000009 -1.8810000000000020 C
atom -6.2560560000000036 -15.1023917999999995 -4.3896600000000010 C
atom -17.5160560000000025 -6.2106081999999994 -0.5603400000000007 C
atom -6.2560560000000018 -4.4458918000000001 -3.0353400000000010 C
atom -17.5160560000000025 -16.8671082000000006 -1.9146600000000025 C
atom -6.8100480000000028 -16.0550829000000022 -3.4605450000000015 C
atom -18.0700479999999999 -5.2579171000000002 -1.4894550000000011 C
atom -6.8100480000000010 -5.3985828999999992 -3.9644550000000010 C
atom -18.0700480000000034 -15.9144170999999979 -0.9855450000000024 C
atom -8.1409800000000043 -16.3342831999999980 -3.4526250000000016 C
atom -19.4009800000000006 -4.9787167999999999 -1.4973750000000012 C
atom -8.1409800000000025 -5.6777831999999995 -3.9723750000000009 C
atom -19.4009800000000006 -15.6352168000000002 -0.9776250000000023 C
atom -8.9787240000000015 -15.6863679999999981 -4.3733250000000021 C
atom -20.2387239999999977 -5.6266320000000025 -0.5766750000000013 C
atom -8.9787240000000015 -5.0298680000000022 -3.0516750000000008 C
atom -20.2387240000000048 -16.2831319999999984 -1.8983250000000020 C
atom -8.5012999999999987 -14.7784341999999995 -0.3143250000000009 C
atom -19.7613000000000021 -6.5345657999999993 -4.6356750000000009 C
atom -8.5012999999999987 -4.1219342000000028 -2.1606750000000008 C
atom -19.7613000000000021 -17.1910657999999970 -2.7893250000000025 C
atom -7.1028079999999996 -14.4502139999999972 -0.3356100000000006 C
atom -18.3628080000000011 -6.8627859999999989 -4.6143900000000011 C
atom -7.1028079999999987 -3.7937140000000031 -2.1393900000000010 C
atom -18.3628080000000011 -17.5192860000000010 -2.8106100000000023 C
atom -6.5465640000000009 -13.4698160000000016 -1.2498750000000012 C
atom -17.8065640000000016 -7.8431839999999990 -3.7001250000000017 C
atom -6.5465639999999965 -2.8133159999999999 -1.2251250000000009 C
atom -17.8065640000000016 -18.4996839999999985 -3.7248750000000022 C
atom -7.3415200000000009 -12.8219007999999999 -2.2077000000000013 C
atom -18.6015200000000007 -8.4910991999999990 -2.7423000000000015 C
atom -7.3415199999999992 -2.1654008000000005 -0.2673000000000003 C
atom -18.6015200000000043 -19.1475991999999984 -4.6827000000000014 C
atom -6.8550880000000021 -11.8351088999999998 -3.0125700000000015 C
atom -18.1150880000000001 -9.4778910999999990 -1.9374300000000018 C
atom -6.8550880000000003 -1.1786089000000002 -4.4124299999999996 C
atom -18.1150880000000036 -20.1343910999999984 -0.5375700000000025 C
atom -7.6838240000000031 -11.1722745999999997 -4.0505850000000017 C
atom -18.9438239999999993 -10.1407253999999991 -0.8994150000000022 C
atom -7.6838239999999987 -0.5157746000000023 -3.3744150000000004 C
atom -18.9438240000000029 -20.7972253999999985 -1.5755850000000027 C
atom -9.0125040000000016 -11.5495146999999996 -4.2708600000000017 C
atom -20.2725040000000014 -9.7634853000000010 -0.6791400000000017 C
atom -9.0125039999999998 -0.8930147000000034 -3.1541400000000004 C
atom -20.2725040000000014 -20.4199852999999969 -1.7958600000000027 C
atom -9.7894440000000014 -10.9527506999999993 -0.2900700000000007 C
atom -21.0494440000000012 -10.3602492999999996 -4.6599300000000019 C
atom -9.7894439999999996 -0.2962507000000029 -2.1849300000000005 C
atom -21.0494440000000012 -21.0167492999999972 -2.7650700000000028 C
atom -9.2692320000000006 -9.9553022999999978 -1.0533600000000014 C
atom -20.5292320000000004 -11.3576976999999975 -3.8966400000000023 C
atom -9.2692320000000024 -20.6118022999999972 -1.4216400000000020 C
atom -20.5292320000000004 -0.7011977000000031 -3.5283600000000015 C
atom -7.9495600000000035 -9.5034666999999988 -0.8523900000000016 C
atom -19.2095599999999997 -11.8095333000000000 -4.0976100000000022 C
atom -7.9495600000000026 -20.1599666999999982 -1.6226100000000017 C
atom -19.2095599999999997 -1.1530333000000008 -3.3273900000000016 C
atom -7.3730480000000016 -8.4463418999999984 -1.6473600000000008 C
atom -18.6330480000000023 -12.8666581000000022 -3.3026400000000025 C
atom -7.3730480000000034 -19.1028418999999978 -0.8276400000000013 C
atom -18.6330480000000023 -2.2101581000000023 -4.1223600000000014 C
atom -6.1276919999999988 -8.0328696999999991 -1.4186700000000008 C
atom -17.3876920000000013 -13.2801302999999997 -3.5313300000000019 C
atom -6.1276920000000032 -18.6893697000000003 -1.0563300000000018 C
atom -17.3876920000000013 -2.6236302999999994 -3.8936700000000011 C
atom -5.2831919999999997 -8.6147145999999992 -0.3994650000000008 C
atom -16.5431920000000012 -12.6982854000000014 -4.5505350000000018 C
atom -5.2831920000000041 -19.2712146000000004 -2.0755350000000017 C
atom -16.5431919999999977 -2.0417853999999998 -2.8744650000000012 C
atom -3.9770320000000008 -8.0925460999999999 -0.1252350000000007 C
atom -15.2370320000000010 -13.2204539000000008 -4.8247650000000020 C
atom -3.9770320000000048 -18.7490461000000010 -2.3497650000000019 C
atom -15.2370319999999992 -2.5639538999999991 -2.6002350000000005 C
atom -3.1933360000000022 -8.7170170000000002 -4.0887000000000011 C
atom -14.4533360000000002 -12.5959830000000004 -0.8613000000000020 C
atom -3.1933360000000062 -19.3735169999999997 -3.3363000000000009 C
atom -14.4533359999999984 -1.9394829999999992 -1.6137000000000010 C
atom -3.6617520000000008 -9.8934945999999986 -3.3932250000000010 C
atom -14.9217520000000032 -11.4195054000000003 -1.5567750000000016 C
atom -3.6617520000000026 -20.5499945999999980 -4.0317750000000014 C
atom -14.9217520000000015 -0.7630054000000011 -0.9182250000000015 C
atom -4.6391200000000037 -12.1441474000000014 -2.0156400000000017 C
atom -15.8991199999999999 -9.1688525999999992 -2.9343600000000012 C
atom -4.6391199999999966 -1.4876474000000017 -0.4593600000000004 C
atom -15.8991200000000017 -19.8253525999999987 -4.4906400000000017 C
atom -5.1638360000000034 -13.1863530999999998 -1.1795850000000010 C
atom -16.4238360000000014 -8.1266468999999990 -3.7704150000000016 C
atom -5.1638359999999990 -2.5298531000000004 -1.2954150000000006 C
atom -16.4238360000000050 -18.7831468999999984 -3.6545850000000022 C
atom -5.4746120000000040 -11.4322931999999984 -2.8848600000000015 C
atom -16.7346120000000020 -9.8807068000000022 -2.0651400000000013 C
atom -5.4746119999999996 -0.7757931999999997 -4.5401400000000001 C
atom -16.7346120000000020 -20.5372067999999999 -0.4098600000000017 C
atom -4.9769200000000033 -10.3559866999999990 -3.6545850000000009 C
atom -16.2369199999999978 -10.9570132999999998 -1.2954150000000018 C
atom -4.9769200000000025 -21.0124867000000002 -3.7704150000000021 C
atom -16.2369199999999978 -0.3005133000000000 -1.1795850000000008 C
atom -5.7943959999999981 -9.6846271999999995 -4.6327050000000005 C
atom -17.0543960000000006 -11.6283728000000011 -0.3172950000000020 C
atom -5.7943960000000025 -20.3411271999999990 -2.7922950000000015 C
atom -17.0543960000000006 -0.9718728000000018 -2.1577050000000009 C
atom -7.1410920000000022 -10.1300688999999977 -4.8287250000000013 C
atom -18.4010919999999984 -11.1829310999999976 -0.1212750000000016 C
atom -7.1410920000000040 -20.7865688999999989 -2.5962750000000021 C
atom -18.4010919999999984 -0.5264311000000012 -2.3537250000000016 C
