#=======================================================
# FHI-aims file: pahs_geometry_fix/ZZZNKU01.in
# Created using the Atomic Simulation Environment (ASE)
# Tue May 25 14:20:53 2021
#=======================================================
lattice_vector 0.0000000000000009 5.5810000000000004 0.0000000000000003 
lattice_vector -0.0000000000000000 -0.0000000000000000 8.0700000000000003 
lattice_vector 21.8461472959105905 -0.0000000000000000 -3.0352898255979501 
atom 10.5079968493329954 5.5140280000000006 0.8076955938873868 H
atom 11.3381504465775969 0.0669720000000000 4.2270145805146626 H
atom 11.3381504465775969 2.7235279999999999 0.1920145805146637 H
atom 10.5079968493329954 2.8574720000000009 4.8426955938873864 H
atom 9.0224588332110738 3.8955380000000006 0.0537653020280471 H
atom 12.8236884626995185 1.6854620000000000 4.9809448723740024 H
atom 12.8236884626995185 1.1050380000000002 0.9459448723740033 H
atom 9.0224588332110738 4.4759620000000009 4.0887653020280474 H
atom 6.8159979563241047 3.8955380000000006 0.7396195744134396 H
atom 15.0301493395864849 1.6854620000000000 4.2950905999886109 H
atom 15.0301493395864849 1.1050380000000002 0.2600905999886106 H
atom 6.8159979563241047 4.4759620000000009 4.7746195744134399 H
atom 7.4932285224973336 1.6687190000000001 2.8728455898199030 H
atom 14.3529187734132595 3.9122810000000006 2.1618645845821471 H
atom 14.3529187734132595 4.4592190000000009 -1.8731354154178534 H
atom 7.4932285224973336 1.1217810000000001 6.9078455898199032 H
atom 9.7215355466802151 1.6575569999999999 2.1678160276089118 H
atom 12.1246117492303789 3.9234430000000007 2.8668941467931375 H
atom 12.1246117492303789 4.4480570000000004 -1.1681058532068627 H
atom 9.7215355466802151 1.1329430000000003 6.2028160276089119 H
atom 4.9372292888757947 3.9011190000000000 1.4122244994148634 H
atom 16.9089180070347993 1.6798810000000000 3.6224856749871854 H
atom 16.9089180070347993 1.1106190000000002 -0.4125143250128143 H
atom 4.9372292888757947 4.4703810000000006 5.4472244994148635 H
atom 2.7307684119888243 3.9178620000000000 2.0254487718002565 H
atom 19.1153788839217711 1.6631380000000000 3.0092614026017932 H
atom 19.1153788839217675 1.1273620000000004 -1.0257385973982067 H
atom 2.7307684119888251 4.4536380000000015 6.0604487718002567 H
atom 3.3206143889784103 1.6966240000000004 4.0739759465091119 H
atom 18.5255329069321846 3.8843760000000001 0.9607342278929382 H
atom 18.5255329069321846 4.4871240000000006 4.9957342278929371 H
atom 3.3206143889784103 1.0938760000000001 0.0389759465091115 H
atom 5.5270752658653794 1.6854620000000000 3.4526816741237192 H
atom 16.3190720300452128 3.8955380000000006 1.5820285002783305 H
atom 16.3190720300452128 4.4759620000000009 5.6170285002783320 H
atom 5.5270752658653794 1.1050380000000002 -0.5823183258762813 H
atom 0.7427690080609609 3.9234430000000007 2.6163901459296701 H
atom 21.1033782878496332 1.6575569999999999 2.4183200284723800 H
atom 21.1033782878496332 1.1329430000000003 -1.6166799715276203 H
atom 0.7427690080609608 4.4480570000000004 6.6513901459296703 H
atom 1.4418457215300993 1.7022050000000004 4.6497408715105353 H
atom 20.4043015743804972 3.8787950000000007 0.3849693028915143 H
atom 20.4043015743804972 4.4927050000000008 4.4199693028915146 H
atom 1.4418457215300993 1.0882950000000000 0.6147408715105355 H
atom 9.5904586629047515 5.5447235000000017 1.0618767665625004 C
atom 12.2556886330058425 0.0362765000000000 3.9728334078395497 C
atom 12.2556886330058425 2.7542235000000006 -0.0621665921604498 C
atom 9.5904586629047515 2.8267764999999998 5.0968767665624997 C
atom 8.7144281563387338 4.5725133000000007 0.6453228885689782 C
atom 13.1317191395718549 1.0084867000000002 4.3893872858330729 C
atom 13.1317191395718549 1.7820133000000002 0.3543872858330723 C
atom 8.7144281563387338 3.7989866999999999 4.6803228885689778 C
atom 7.3927362449361445 4.5831172000000002 1.0444269230176539 C
atom 14.4534110509744469 0.9978828000000000 3.9902832513843953 C
atom 14.4534110509744469 1.7926172000000000 -0.0447167486156042 C
atom 7.3927362449361436 3.7883827999999999 5.0794269230176532 C
atom 6.9099363896965205 0.0039067000000000 1.8813848281633687 C
atom 14.9362109062140735 5.5770933000000005 3.1533253462386819 C
atom 14.9362109062140700 2.7944067000000010 -0.8816746537613188 C
atom 6.9099363896965222 2.7865933000000003 5.9163848281633680 C
atom 7.8034438140992632 0.9828141000000002 2.2914754742964125 C
atom 14.0427034818113299 4.5981858999999998 2.7432347001056367 C
atom 14.0427034818113281 3.7733141000000003 -1.2917652998943625 C
atom 7.8034438140992632 1.8076859000000003 6.3264754742964113 C
atom 9.1316895696906286 0.9705359000000002 1.8833908529000567 C
atom 12.7144577262199654 4.6104640999999997 3.1513193215019926 C
atom 12.7144577262199654 3.7610359000000004 -0.8836806784980070 C
atom 9.1316895696906286 1.8199641000000004 5.9183908529000568 C
atom 5.4943060449215135 0.0234402000000000 2.3274346088621156 C
atom 16.3518412509890823 5.5575598000000008 2.7072755655399345 C
atom 16.3518412509890823 2.8139402000000002 -1.3277244344600665 C
atom 5.4943060449215153 2.7670598000000002 6.3624346088621158 C
atom 4.6204601530850908 4.6177194000000004 1.9452782018860337 C
atom 17.2256871428254996 0.9632806000000000 3.0894319725160160 C
atom 17.2256871428254996 1.8272194000000002 -0.9455680274839837 C
atom 4.6204601530850908 3.7537806000000007 5.9802782018860343 C
atom 3.3009528564120920 4.6115803000000009 2.3456927073521499 C
atom 18.5451944394984984 0.9694197000000000 2.6890174670498990 C
atom 18.5451944394985020 1.8210803000000000 -1.3459825329501005 C
atom 3.3009528564120911 3.7599197000000006 6.3806927073521491 C
atom 2.7591684034735091 5.5698380000000007 3.1617938950269791 C
atom 19.0869788924370845 0.0111620000000000 1.8729162793750702 C
atom 19.0869788924370880 2.7793380000000001 -2.1620837206249299 C
atom 2.7591684034735078 2.8016620000000003 7.1967938950269792 C
atom 3.6330142953099323 0.9772331000000001 3.5358803020030609 C
atom 18.2131330006006635 4.6037669000000001 1.4988298723989897 C
atom 18.2131330006006635 3.7677331000000005 5.5338298723989867 C
atom 3.6330142953099323 1.8132669000000006 -0.4991196979969390 C
atom 4.9525215919829311 0.9906275000000000 3.1395007965369444 C
atom 16.8936257039276612 4.5903725000000000 1.8952093778651040 C
atom 16.8936257039276612 3.7811275000000002 -2.1397906221348952 C
atom 4.9525215919829311 1.7998725000000002 7.1745007965369449 C
atom 1.3413534439689112 5.5603503000000005 3.6049192047082856 C
atom 20.5047938519416810 0.0206497000000000 1.4297909696937636 C
atom 20.5047938519416846 2.7698503000000008 -2.6052090303062365 C
atom 1.3413534439689108 2.8111497000000005 7.6399192047082867 C
atom 0.4456614048365768 4.5825591000000010 3.2298330875578021 C
atom 21.4004858910740161 0.9984409000000001 1.8048770868442472 C
atom 21.4004858910740161 1.7920591000000001 -2.2301229131557521 C
atom 0.4456614048365767 3.7889409000000005 7.2648330875578022 C
atom 0.8672920476476506 0.9895113000000001 4.4164529939237607 C
atom 20.9788552482629456 4.5914887000000002 0.6182571804782886 C
atom 20.9788552482629456 3.7800113000000004 4.6532571804782883 C
atom 0.8672920476476509 1.8009887000000000 0.3814529939237614 C
