#=======================================================
# FHI-aims file: pahs_geometry_fix/YOFCUR.in
# Created using the Atomic Simulation Environment (ASE)
# Tue May 25 14:20:53 2021
#=======================================================
lattice_vector -0.0000000000000006 -3.8319999999999999 -0.0000000000000002 
lattice_vector -10.3759089716750843 0.0000000000000000 0.0434627600652696 
lattice_vector 0.0000000000000000 0.0000000000000000 -31.9140000000000015 
atom -2.3345795186268954 -2.3681759999999996 -29.8266194789853181 H
atom -8.0413294530481902 -1.4638239999999996 -2.0439177609494212 H
atom -8.0413294530481902 -0.4521760000000000 -18.0009177609494166 H
atom -2.3345795186268954 -3.3798239999999997 -13.8696194789853173 H
atom -3.2891631440210030 -2.8203519999999997 -31.5140629050593120 H
atom -7.0867458276540836 -1.0116480000000001 -0.3564743348754245 H
atom -7.0867458276540836 -0.9043519999999995 -16.3134743348754228 H
atom -3.2891631440210030 -2.9276480000000000 -15.5570629050593112 H
atom -5.3332172114409939 -2.8701680000000001 -0.9063575413264556 H
atom -5.0426917602340913 -0.9618319999999996 -30.9641796986082802 H
atom -5.0426917602340913 -0.9541679999999999 -15.0071796986082795 H
atom -5.3332172114409939 -2.8778319999999997 -16.8633575413264580 H
atom -6.4849431072969281 -3.3951519999999999 -2.9280721749592074 H
atom -3.8909658643781557 -0.4368479999999995 -28.9424650649755257 H
atom -3.8909658643781571 -1.4791520000000000 -12.9854650649755232 H
atom -6.4849431072969281 -2.3528479999999994 -18.8850721749592090 H
atom -6.4434394714102270 -0.4675039999999995 -5.2132884259994681 H
atom -3.9324695002648586 -3.3644959999999999 -26.6572488139352650 H
atom -3.9324695002648586 -2.3835039999999994 -10.7002488139352625 H
atom -6.4434394714102279 -1.4484960000000000 -21.1702884259994732 H
atom -5.2605858486392689 -1.4944799999999996 -7.0724465806469103 H
atom -5.1153231230358172 -2.3375199999999996 -24.7980906592878263 H
atom -5.1153231230358172 -3.4104799999999997 -8.8410906592878202 H
atom -5.2605858486392680 -0.4215200000000000 -23.0294465806469120 H
atom -3.1542763273892276 -2.3566799999999999 -7.9908185209401594 H
atom -7.2216326442858598 -1.4753200000000000 -23.8797187189945745 H
atom -7.2216326442858598 -0.4406800000000000 -7.9227187189945756 H
atom -3.1542763273892280 -3.3913199999999999 -23.9478185209401602 H
atom -0.8300727177340079 -2.8586719999999999 -7.7484335791947823 H
atom -9.5458362539410775 -0.9733280000000000 -24.1221036607399526 H
atom -9.5458362539410775 -0.9426720000000000 -8.1651036607399554 H
atom -0.8300727177340079 -2.8893279999999999 -23.7054335791947821 H
atom -1.2243572586576612 -0.9963199999999995 -25.5164971943123007 H
atom -9.1515517130174242 -2.8356800000000000 -6.3540400456224368 H
atom -9.1515517130174242 -2.9123199999999998 -22.3110400456224305 H
atom -1.2243572586576612 -0.9196799999999999 -9.5594971943123017 H
atom -2.3864590634852694 -1.5136400000000001 -27.5381683651849869 H
atom -7.9894499081898154 -2.3183599999999998 -4.3323688747497471 H
atom -7.9894499081898154 -3.4296400000000000 -20.2893688747497443 H
atom -2.3864590634852680 -0.4023599999999995 -11.5811683651849915 H
atom -1.3540561208035995 -2.6057599999999996 -29.7541331098114838 C
atom -9.0218528508714861 -1.2262399999999998 -2.1164041301232519 C
atom -9.0218528508714861 -0.6897600000000002 -18.0734041301232509 C
atom -1.3540561208035997 -3.1422400000000001 -13.7971331098114867 C
atom -0.7055618100739068 -3.2012527999999998 -30.8132029323155621 C
atom -9.6703471616011782 -0.6307471999999998 -1.0573343076191719 C
atom -9.6703471616011782 -1.2852527999999996 -17.0143343076191691 C
atom -0.7055618100739067 -2.5467472000000000 -14.8562029323155631 C
atom -1.4100860292506459 -3.5281223999999995 -0.1568548109071334 C
atom -8.9658229424244400 -0.3038776000000001 -31.7136824290276031 C
atom -8.9658229424244400 -1.6121223999999994 -15.7566824290276024 C
atom -1.4100860292506456 -2.2198775999999998 -16.1138548109071316 C
atom -2.7516910592882327 -3.2514520000000000 -0.3267620760306960 C
atom -7.6242179123868530 -0.5805479999999998 -31.5437751639040407 C
atom -7.6242179123868530 -1.3354520000000001 -15.5867751639040382 C
atom -2.7516910592882327 -2.4965479999999998 -16.2837620760306940 C
atom -4.8362111716977569 -3.2709951999999998 -1.6775668075335826 C
atom -5.5396977999773283 -0.5610047999999999 -30.1929704324011539 C
atom -5.5396977999773283 -1.3549951999999996 -14.2359704324011531 C
atom -4.8362111716977569 -2.4770048000000000 -17.6345668075335809 C
atom -5.4867806642217856 -3.5798543999999999 -2.8397026924774895 C
atom -4.8891283074532996 -0.2521455999999999 -29.0308345474572462 C
atom -4.8891283074533005 -1.6638544000000000 -13.0738345474572490 C
atom -5.4867806642217856 -2.1681456000000003 -18.7967026924774885 C
atom -5.4608408917925972 -0.6790304000000000 -5.1503849493776528 C
atom -4.9150680798824888 -3.1529695999999996 -26.7201522905570847 C
atom -4.9150680798824888 -2.5950304000000002 -10.7631522905570858 C
atom -5.4608408917925972 -1.2369695999999994 -21.1073849493776500 C
atom -4.7864068086337168 -1.2680087999999998 -6.1776494287818959 C
atom -5.5895021630413693 -2.5639911999999998 -25.6928878111528434 C
atom -5.5895021630413693 -3.1840088000000000 -9.7358878111528391 C
atom -4.7864068086337168 -0.6479911999999997 -22.1346494287818913 C
atom -2.6666086057204983 -2.1681456000000003 -7.1248004706632271 C
atom -7.7093003659545891 -1.6638544000000000 -24.7457367692715060 C
atom -7.7093003659545891 -0.2521455999999999 -8.7887367692715053 C
atom -2.6666086057204983 -3.5798543999999999 -23.0818004706632287 C
atom -1.3353794846545852 -2.4421336000000000 -6.9995293427796046 C
atom -9.0405294870205015 -1.3898663999999996 -24.8710078971551312 C
atom -9.0405294870205015 -0.5261335999999999 -8.9140078971551304 C
atom -1.3353794846545854 -3.3058663999999998 -22.9565293427796036 C
atom -0.7522534004464440 -1.4186063999999998 -26.2748365498952694 C
atom -9.6236555712286407 -2.4133936000000000 -5.5957006900394655 C
atom -9.6236555712286407 -3.3346063999999997 -21.5527006900394653 C
atom -0.7522534004464437 -0.4973936000000001 -10.3178365498952722 C
atom -1.3955597566902997 -1.7075391999999996 -27.4401942587712213 C
atom -8.9803492149847859 -2.1244608000000000 -4.4303429811635135 C
atom -8.9803492149847859 -3.6235391999999997 -20.3873429811635134 C
atom -1.3955597566903006 -0.2084608000000000 -11.4831942587712241 C
atom -0.7097121736625763 -2.2999664000000002 -28.5377173472115366 C
atom -9.6661967980125088 -1.5320336000000001 -3.3328198927231991 C
atom -9.6661967980125088 -0.3839663999999998 -19.2898198927231981 C
atom -0.7097121736625764 -3.4480335999999996 -12.5807173472115394 C
atom -9.6900613886473614 -3.5162431999999999 -30.6447211283750462 C
atom -0.6858475830277236 -0.3157567999999997 -1.2258161115596886 C
atom -0.6858475830277239 -1.6002431999999998 -17.1828161115596849 C
atom -9.6900613886473614 -2.2317567999999999 -14.6877211283750491 C
atom -3.4499897330819662 -3.5564792000000001 -1.5206120322783028 C
atom -6.9259192385931190 -0.2755207999999994 -30.3499252076564332 C
atom -6.9259192385931190 -1.6404792000000001 -14.3929252076564325 C
atom -3.4499897330819662 -2.1915207999999997 -17.4776120322783015 C
atom -4.8102713992685695 -0.3487119999999999 -3.9276124644337420 C
atom -5.5656375724065157 -3.4832879999999999 -27.9429247755009911 C
atom -5.5656375724065157 -2.2647119999999998 -11.9859247755009886 C
atom -4.8102713992685704 -1.5672880000000000 -19.8846124644337436 C
atom -3.4032981427094273 -1.5657551999999999 -6.0781268146985941 C
atom -6.9726108289656565 -2.2662447999999995 -25.7924104252361417 C
atom -6.9726108289656565 -3.4817551999999998 -9.8354104252361410 C
atom -3.4032981427094260 -0.3502447999999997 -22.0351268146985966 C
atom -9.7419409335057363 -1.6937439999999997 -26.0680362145747218 C
atom -0.6339680381693484 -2.1382560000000002 -5.8025010253600140 C
atom -0.6339680381693487 -3.6097439999999996 -21.7595010253600130 C
atom -9.7419409335057363 -0.2222560000000002 -10.1110362145747210 C
atom -9.0135521236941472 -3.2085335999999995 -29.4348229003313016 C
atom -1.3623568479809396 -0.6234663999999998 -2.4357143396034342 C
atom -1.3623568479809396 -1.2925336000000001 -18.3927143396034332 C
atom -9.0135521236941472 -2.5394664000000002 -13.4778229003313008 C
atom -2.7475406956995627 -0.3299351999999998 -2.5830992611347217 C
atom -7.6283682759755234 -3.5020647999999994 -29.2874379788000141 C
atom -7.6283682759755216 -2.2459351999999999 -13.3304379788000169 C
atom -2.7475406956995632 -1.5860647999999997 -18.5400992611347171 C
atom -3.4313130969329491 -0.6430095999999994 -3.7961584652464175 C
atom -6.9445958747421344 -3.1889904000000002 -28.0743787746883164 C
atom -6.9445958747421344 -2.5590095999999996 -12.1173787746883210 C
atom -3.4313130969329504 -1.2729904000000001 -19.7531584652464183 C
atom -2.7267888777562139 -1.2503815999999996 -4.8682285866548520 C
atom -7.6491200939188735 -2.5816184000000000 -27.0023086532798828 C
atom -7.6491200939188735 -3.1663815999999998 -11.0453086532798856 C
atom -2.7267888777562126 -0.6656183999999998 -20.8252285866548483 C
atom -9.0374167143289981 -2.2907696000000000 -27.1369149359831532 C
atom -1.3384922573460873 -1.5412303999999999 -4.7336223039515826 C
atom -1.3384922573460871 -0.3747696000000000 -20.6906223039515851 C
atom -9.0374167143289981 -3.4572303999999998 -11.1799149359831524 C
atom -9.7108132065907107 -2.6003951999999999 -28.3595918028549150 C
atom -0.6650957650843747 -1.2316047999999995 -3.5109454370798194 C
atom -0.6650957650843746 -0.6843951999999999 -19.4679454370798162 C
atom -9.7108132065907107 -3.1476047999999999 -12.4025918028549196 C
