#=======================================================
# FHI-aims file: pahs_geometry_fix/DBNTHR02.in
# Created using the Atomic Simulation Environment (ASE)
# Tue May 25 14:20:52 2021
#=======================================================
lattice_vector 8.2629999999999999 0.0000000000000000 0.0000000000000005 
lattice_vector 0.0000000000000018 11.4659999999999993 0.0000000000000007 
lattice_vector 0.0000000000000000 0.0000000000000000 15.2379999999999995 
atom 8.0481620000000014 9.5626439999999988 6.4304360000000003 H
atom 0.2148380000000003 1.9033560000000000 8.8075639999999993 H
atom 0.2148380000000012 7.6363560000000001 14.0494360000000000 H
atom 8.0481619999999996 3.8296440000000000 1.1885640000000006 H
atom 3.9166620000000001 1.9033560000000000 1.1885640000000004 H
atom 4.3463380000000020 9.5626439999999988 14.0494360000000018 H
atom 4.3463380000000011 3.8296440000000000 8.8075639999999993 H
atom 3.9166620000000010 7.6363560000000001 6.4304360000000003 H
atom 7.0318130000000005 8.2555199999999989 4.6018760000000007 H
atom 1.2311870000000005 3.2104800000000000 10.6361239999999988 H
atom 1.2311870000000014 8.9434799999999992 12.2208760000000005 H
atom 7.0318129999999996 2.5225199999999997 3.0171240000000008 H
atom 2.9003130000000001 3.2104800000000000 3.0171240000000004 H
atom 5.3626870000000011 8.2555199999999989 12.2208760000000005 H
atom 5.3626870000000002 2.5225199999999997 10.6361239999999988 H
atom 2.9003130000000010 8.9434799999999992 4.6018760000000007 H
atom 0.8841410000000000 0.1146600000000000 5.8818679999999999 H
atom 7.3788590000000021 11.3513399999999987 9.3561320000000006 H
atom 7.3788590000000012 5.6183399999999999 13.5008680000000005 H
atom 0.8841410000000008 5.8476599999999994 1.7371320000000003 H
atom 5.0156410000000013 11.3513399999999987 1.7371320000000010 H
atom 3.2473589999999999 0.1146600000000000 13.5008680000000005 H
atom 3.2473590000000008 5.8476599999999994 9.3561320000000006 H
atom 5.0156410000000005 5.6183399999999999 5.8818680000000008 H
atom 0.9750340000000001 0.8026200000000000 3.5656920000000003 H
atom 7.2879660000000017 10.6633800000000001 11.6723080000000010 H
atom 7.2879660000000008 4.9303799999999995 11.1846920000000001 H
atom 0.9750340000000010 6.5356199999999989 4.0533080000000004 H
atom 5.1065340000000017 10.6633800000000001 4.0533080000000012 H
atom 3.1564660000000000 0.8026200000000000 11.1846920000000001 H
atom 3.1564660000000009 6.5356199999999989 11.6723080000000010 H
atom 5.1065340000000008 4.9303799999999995 3.5656920000000007 H
atom 1.0576640000000002 1.3873859999999998 1.6152280000000001 H
atom 7.2053360000000017 10.0786140000000000 13.6227720000000012 H
atom 7.2053360000000009 4.3456139999999994 9.2342279999999999 H
atom 1.0576640000000010 7.1203859999999999 6.0037720000000006 H
atom 5.1891640000000017 10.0786140000000000 6.0037720000000014 H
atom 3.0738360000000005 1.3873859999999998 9.2342279999999999 H
atom 3.0738360000000013 7.1203859999999999 13.6227720000000012 H
atom 5.1891640000000008 4.3456139999999994 1.6152280000000006 H
atom 6.4451400000000021 8.5536359999999991 0.0457140000000009 H
atom 1.8178600000000005 2.9123639999999997 15.1922859999999993 H
atom 1.8178600000000014 8.6453639999999989 7.6647140000000000 H
atom 6.4451400000000012 2.8206359999999999 7.5732860000000004 H
atom 2.3136400000000008 2.9123639999999997 7.5732860000000004 H
atom 5.9493600000000013 8.5536359999999991 7.6647140000000009 H
atom 5.9493600000000004 2.8206359999999999 15.1922859999999993 H
atom 2.3136400000000017 8.6453639999999989 0.0457140000000007 H
atom 6.4781920000000008 7.8771420000000001 2.3314140000000010 H
atom 1.7848080000000006 3.5888579999999997 12.9065859999999990 H
atom 1.7848080000000015 9.3218579999999989 9.9504140000000003 H
atom 6.4781920000000000 2.1441420000000000 5.2875860000000001 H
atom 2.3466920000000000 3.5888579999999997 5.2875860000000001 H
atom 5.9163080000000008 7.8771420000000001 9.9504140000000003 H
atom 5.9163079999999999 2.1441420000000000 12.9065859999999990 H
atom 2.3466920000000009 9.3218579999999989 2.3314140000000005 H
atom 8.0564250000000008 9.8229221999999989 5.4445374000000006 C
atom 0.2065750000000003 1.6430777999999999 9.7934625999999998 C
atom 0.2065750000000012 7.3760777999999991 13.0635373999999995 C
atom 8.0564249999999991 4.0899222000000002 2.1744626000000005 C
atom 3.9249250000000000 1.6430777999999999 2.1744626000000000 C
atom 4.3380750000000017 9.8229221999999989 13.0635373999999995 C
atom 4.3380750000000008 4.0899222000000002 9.7934626000000016 C
atom 3.9249250000000009 7.3760777999999991 5.4445374000000006 C
atom 7.5532083000000023 9.4697693999999988 3.1085520000000009 C
atom 0.7097917000000004 1.9962305999999999 12.1294480000000000 C
atom 0.7097917000000012 7.7292306000000002 10.7275519999999993 C
atom 7.5532083000000014 3.7367694000000000 4.5104480000000002 C
atom 3.4217083000000006 1.9962305999999999 4.5104480000000002 C
atom 4.8412917000000011 9.4697693999999988 10.7275519999999993 C
atom 4.8412917000000002 3.7367694000000000 12.1294480000000000 C
atom 3.4217083000000015 7.7292306000000002 3.1085520000000004 C
atom 7.5028040000000020 9.0650195999999994 4.4601626000000012 C
atom 0.7601960000000003 2.4009803999999999 10.7778374000000010 C
atom 0.7601960000000013 8.1339804000000004 12.0791626000000001 C
atom 7.5028040000000011 3.3320196000000002 3.1588374000000008 C
atom 3.3713040000000003 2.4009803999999999 3.1588374000000004 C
atom 4.8916960000000014 9.0650195999999994 12.0791626000000001 C
atom 4.8916960000000005 3.3320196000000002 10.7778374000000010 C
atom 3.3713040000000012 8.1339804000000004 4.4601626000000012 C
atom 0.4511598000000018 11.0188259999999989 5.1214918000000003 C
atom 7.8118401999999998 0.4471740000000000 10.1165082000000002 C
atom 7.8118402000000007 6.1801740000000001 12.7404917999999991 C
atom 0.4511598000000008 5.2858260000000001 2.4975082000000000 C
atom 4.5826598000000001 0.4471740000000000 2.4975082000000000 C
atom 3.6803402000000021 11.0188259999999989 12.7404917999999991 C
atom 3.6803402000000012 5.2858260000000001 10.1165082000000002 C
atom 4.5826598000000009 6.1801740000000001 5.1214918000000003 C
atom 0.5098271000000019 11.4338951999999985 3.8140714000000009 C
atom 7.7531729000000000 0.0321048000000000 11.4239286000000000 C
atom 7.7531729000000009 5.7651047999999996 11.4330713999999993 C
atom 0.5098271000000009 5.7008951999999997 3.8049286000000002 C
atom 4.6413270999999998 0.0321048000000000 3.8049286000000002 C
atom 3.6216729000000019 11.4338951999999985 11.4330713999999993 C
atom 3.6216729000000010 5.7008951999999997 11.4239286000000000 C
atom 4.6413271000000007 5.7651047999999996 3.8140714000000009 C
atom 8.1977223000000023 10.6817256000000000 2.7748398000000014 C
atom 0.0652777000000001 0.7842743999999999 12.4631601999999990 C
atom 0.0652777000000011 6.5172743999999998 10.3938398000000003 C
atom 8.1977223000000006 4.9487255999999995 4.8441602000000010 C
atom 4.0662222999999997 0.7842743999999999 4.8441602000000001 C
atom 4.1967777000000019 10.6817256000000000 10.3938398000000021 C
atom 4.1967777000000011 4.9487255999999995 12.4631601999999990 C
atom 4.0662223000000006 6.5172743999999998 2.7748398000000010 C
atom 8.2464740000000010 11.0933549999999990 1.3805628000000012 C
atom 0.0165260000000001 0.3726450000000000 13.8574371999999997 C
atom 0.0165260000000010 6.1056449999999991 8.9995627999999996 C
atom 8.2464739999999992 5.3603550000000002 6.2384372000000008 C
atom 4.1149740000000001 0.3726450000000000 6.2384371999999999 C
atom 4.1480260000000015 11.0933549999999990 8.9995628000000014 C
atom 4.1480260000000007 5.3603550000000002 13.8574371999999997 C
atom 4.1149740000000010 6.1056449999999991 1.3805628000000005 C
atom 0.6345984000000000 0.7842743999999999 0.9462798000000001 C
atom 7.6284016000000019 10.6817256000000000 14.2917202000000003 C
atom 7.6284016000000010 4.9487255999999995 8.5652798000000008 C
atom 0.6345984000000009 6.5172743999999998 6.6727202000000005 C
atom 4.7660984000000015 10.6817256000000000 6.6727202000000005 C
atom 3.4969016000000002 0.7842743999999999 8.5652798000000008 C
atom 3.4969016000000011 6.5172743999999998 14.2917202000000003 C
atom 4.7660984000000006 4.9487255999999995 0.9462798000000006 C
atom 7.6019600000000018 10.2953214000000006 0.3900928000000011 C
atom 0.6610400000000002 1.1706785999999998 14.8479071999999999 C
atom 0.6610400000000011 6.9036785999999992 8.0090927999999995 C
atom 7.6019600000000009 4.5623213999999992 7.2289072000000001 C
atom 3.4704599999999997 1.1706785999999998 7.2289072000000001 C
atom 4.7925400000000016 10.2953214000000006 8.0090927999999995 C
atom 4.7925400000000007 4.5623213999999992 14.8479072000000016 C
atom 3.4704600000000005 6.9036785999999992 0.3900928000000006 C
atom 6.9467041000000016 9.0810720000000007 0.7954236000000010 C
atom 1.3162959000000003 2.3849279999999999 14.4425764000000001 C
atom 1.3162959000000012 8.1179279999999991 8.4144236000000010 C
atom 6.9467041000000007 3.3480719999999997 6.8235764000000003 C
atom 2.8152041000000003 2.3849279999999999 6.8235763999999994 C
atom 5.4477959000000018 9.0810720000000007 8.4144236000000010 C
atom 5.4477959000000009 3.3480719999999997 14.4425764000000001 C
atom 2.8152041000000012 8.1179279999999991 0.7954236000000007 C
atom 6.9293518000000018 8.6912279999999988 2.0754156000000008 C
atom 1.3336482000000003 2.7747719999999996 13.1625844000000001 C
atom 1.3336482000000012 8.5077719999999992 9.6944155999999992 C
atom 6.9293518000000009 2.9582280000000001 5.5435844000000003 C
atom 2.7978518000000006 2.7747719999999996 5.5435844000000003 C
atom 5.4651482000000016 8.6912279999999988 9.6944156000000010 C
atom 5.4651482000000007 2.9582280000000001 13.1625844000000001 C
atom 2.7978518000000014 8.5077719999999992 2.0754156000000004 C
