#=======================================================
# FHI-aims file: pahs_geometry_fix/DBPERY.in
# Created using the Atomic Simulation Environment (ASE)
# Tue May 25 14:20:52 2021
#=======================================================
lattice_vector 0.0000000000000008 5.2300000000000004 -0.0000000000000000 
lattice_vector -0.0000000000000004 -2.6150000000000002 10.2599999999999998 
lattice_vector 15.7196562741727117 -0.0000000000000000 -5.0470294849408734 
atom 14.7818215808555671 2.3036581000000007 0.7091130941306978 C
atom 0.9378346933171440 0.3113418999999999 4.5038574209284281 C
atom 8.7976628304035014 -0.3113418999999996 1.9803426784579896 C
atom 6.9219934437692121 2.9263419000000002 3.2326278366011350 C
atom 15.5135715804183079 1.3005964000000001 1.5133066716067032 C
atom 0.2060846937544045 1.3144036000000003 3.6996638434524245 C
atom 8.0659128308407606 3.9155963999999996 1.1761491009819891 C
atom 7.6537434433319511 -1.3005964000000001 4.0368214140771403 C
atom 15.0059838793252709 2.2912630000000003 -0.7278479463245566 C
atom 0.7136723948474412 0.3237370000000001 5.9408184613836843 C
atom 8.5735005319337976 -0.3237369999999999 3.4173037189132462 C
atom 7.1461557422389150 2.9387370000000002 1.7956667961458801 C
atom 14.2805217422721995 3.2057807999999999 -1.4897371355945370 C
atom 1.4391345319005118 -0.5907807999999994 6.7027076506536627 C
atom 9.2989626689868672 0.5907807999999999 4.1791929081832295 C
atom 6.4206936051858445 2.0242192000000006 1.0337776068758966 C
atom 13.4101243743712573 4.0959791000000001 -0.8926335130133617 C
atom 2.3095318998014545 -1.4809791000000001 6.1056040280724888 C
atom 10.1693600368878112 1.4809791000000005 3.5820892856020454 C
atom 5.5502962372849014 1.1340208999999997 1.6308812294570778 C
atom 13.1920927418484819 -1.1040529999999997 0.4769003859427664 C
atom 2.5275635323242307 3.7190530000000006 4.7360701291163565 C
atom 10.3873916694105866 1.5109470000000005 2.2125553866459198 C
atom 5.3322646047621260 1.1040530000000002 3.0004151284132066 C
atom 13.9048219573194718 3.2025904999999999 1.2904840690955521 C
atom 1.8148343168532395 -0.5875904999999996 3.9224864459635742 C
atom 9.6746624539395967 0.5875905000000001 1.3989717034931402 C
atom 6.0449938202331168 2.0274095000000010 3.8139988115659835 C
atom 13.7086406470177966 3.2053101000000002 2.7354929970676123 C
atom 2.0110156271549147 -0.5903101000000002 2.4774775179915154 C
atom 9.8708437642412701 0.5903100999999998 -0.0460372244789213 C
atom 5.8488125099314416 2.0246898999999998 5.2590077395380463 C
atom 12.8635519257182711 -1.0980908000000005 3.3638693021780353 C
atom 2.8561043484544406 3.7130908000000002 1.8491012128810933 C
atom 10.7159324855407956 1.5169092000000002 -0.6744135295893418 C
atom 5.0037237886319161 1.0980907999999998 5.8873840446484689 C
atom 12.7046262007863859 -1.1000781999999996 4.7669575702707832 C
atom 3.0150300733863267 3.7150782000000007 0.4460129447883409 C
atom 10.8748582104726825 1.5149218000000004 -2.0775017976820980 C
atom 4.8447980637000292 1.1000781999999998 7.2904723127412243 C
atom 13.3618650296095467 -2.0958179000000001 5.4973988675054066 C
atom 2.3577912445631659 4.7108179000000003 -0.2844283524462841 C
atom 10.2176193816495200 0.5191820999999999 -2.8079430949167179 C
atom 5.5020368925231908 2.0958179000000006 8.0209136099758425 C
atom 14.1854178218134557 2.1877090000000008 4.9128729927893549 C
atom 1.5342384523592569 0.4272910000000000 0.3000975222697712 C
atom 9.3940665894456128 4.8027090000000010 -2.2234172202006652 C
atom 6.3255896847270989 -2.1877089999999999 7.4363877352597898 C
atom 14.3575480580156487 2.2688786000000007 3.5129324199292533 C
atom 1.3621082161570657 0.3461214000000001 1.7000380951298721 C
atom 9.2219363532434215 -0.3461213999999998 -0.8234766473405640 C
atom 6.4977199209292911 2.9611214000000001 6.0364471623996918 C
atom 15.2515249103278485 1.3738686999999998 2.8926630531206672 C
atom 0.4681313638448636 1.2411313000000004 2.3203074619384596 C
atom 8.3279595009312199 3.9888687000000007 -0.2032072805319771 C
atom 7.3916967732414927 -1.3738687000000001 5.4161777955911035 C
atom 14.3520461783196875 3.5511700000000004 -2.4943779197510159 H
atom 1.3676100958530257 -0.9361700000000002 7.7073484348101440 H
atom 9.2274382329393809 0.9361700000000008 5.1838336923397090 H
atom 6.4922180412333299 1.6788300000000000 0.0291368227194181 H
atom 12.9372771136441411 4.3827400000000001 -1.5476652661063341 H
atom 2.7823791605285697 -1.7677399999999999 6.7606357811654654 H
atom 10.6422072976149273 1.7677399999999999 4.2371210386950287 H
atom 5.0774489765577862 0.8472600000000002 0.9758494763640988 H
atom 12.4656874254189614 -0.9257099999999999 0.8404256184418845 H
atom 3.2539688487537517 3.5407100000000002 4.3725448966172422 H
atom 11.1137969858401071 1.6892900000000000 1.8490301541468017 H
atom 4.6058592883326046 0.9257100000000001 3.3639403609123248 H
atom 12.1198549873871606 -0.4602400000000001 3.0445002671105859 H
atom 3.5998012867855516 3.0752400000000000 2.1684702479485427 H
atom 11.4596294238719061 2.1547600000000005 -0.3550444945218961 H
atom 4.2600268503008056 0.4602399999999998 5.5680150095810230 H
atom 12.0412567060162967 -0.6328299999999997 5.1832954145352890 H
atom 3.6783995681564154 3.2478300000000004 0.0296751005238344 H
atom 11.5382277052427700 1.9821700000000000 -2.4938396419466011 H
atom 4.1814285689299417 0.6328299999999998 7.7068101570057275 H
atom 13.1259129889342141 0.5177700000000000 -3.7012696199256285 H
atom 2.5937432852384981 2.0972300000000001 8.9142401349847535 H
atom 10.4535714223248544 -2.0972300000000001 6.3907253925143168 H
atom 5.2660848518478591 4.7122300000000008 -1.1777548774551900 H
atom 14.7607572414481751 1.6422199999999996 5.4797993136405214 H
atom 0.9588990327245356 0.9727800000000003 -0.2668287985813925 H
atom 8.8187271698108933 4.2572199999999993 -2.7903435410518278 H
atom 6.9009291043618202 -1.6422200000000000 8.0033140561109555 H
atom 0.1729162190158999 0.4968500000000000 8.6244426756656498 H
atom 15.5467400551568122 2.1181500000000009 -3.4114721606065253 H
atom 7.6869119180704564 3.1118500000000000 -0.8879574181360881 H
atom 8.0327443561022562 -0.4968499999999997 6.1009279331952149 H
