#=======================================================
# FHI-aims file: pahs_geometry_fix/FOVVOB.in
# Created using the Atomic Simulation Environment (ASE)
# Tue May 25 14:20:52 2021
#=======================================================
lattice_vector 0.0000000000000014 9.0129999999999999 0.0000000000000006 
lattice_vector -0.0000000000000000 -0.0000000000000000 9.9499999999999993 
lattice_vector 23.5770000000000017 -0.0000000000000000 0.0000000000000014 
atom 12.9697077000000061 7.3428911000000010 7.2117600000000008 H
atom 10.6072923000000010 1.6701089000000000 2.7382400000000002 H
atom 22.3957923000000001 6.1766088999999997 2.2367600000000016 H
atom 1.1812077000000005 2.8363910999999997 7.7132399999999999 H
atom 10.6072923000000028 7.3428911000000010 7.7132400000000008 H
atom 12.9697077000000025 1.6701089000000000 2.2367600000000007 H
atom 1.1812077000000010 6.1766088999999997 2.7382400000000002 H
atom 22.3957923000000001 2.8363910999999997 7.2117600000000017 H
atom 15.0774915000000043 6.7417239999999996 8.2783999999999995 H
atom 8.4995085000000028 2.2712759999999999 1.6716000000000006 H
atom 20.2880085000000037 6.7777760000000002 3.3034000000000017 H
atom 3.2889915000000007 2.2352240000000001 6.6466000000000003 H
atom 8.4995085000000028 6.7417239999999996 6.6466000000000012 H
atom 15.0774915000000007 2.2712759999999999 3.3034000000000003 H
atom 3.2889915000000016 6.7777760000000002 1.6716000000000006 H
atom 20.2880085000000037 2.2352240000000001 8.2783999999999995 H
atom 17.3432412000000049 7.0301400000000003 7.6018000000000008 H
atom 6.2337588000000013 1.9828600000000001 2.3482000000000003 H
atom 18.0222588000000030 6.4893599999999996 2.6268000000000011 H
atom 5.5547412000000005 2.5236400000000003 7.3231999999999999 H
atom 6.2337588000000022 7.0301400000000003 7.3231999999999999 H
atom 17.3432412000000014 1.9828600000000001 2.6268000000000011 H
atom 5.5547412000000005 6.4893599999999996 2.3482000000000003 H
atom 18.0222587999999995 2.5236400000000003 7.6018000000000008 H
atom 18.1613631000000062 5.9846320000000004 5.7411500000000002 H
atom 5.4156369000000009 3.0283679999999999 4.2088500000000000 H
atom 17.2041369000000017 7.5348679999999995 0.7661500000000014 H
atom 6.3728631000000000 1.4781320000000000 9.1838499999999996 H
atom 5.4156369000000009 5.9846320000000004 9.1838499999999996 H
atom 18.1613631000000026 3.0283679999999999 0.7661500000000012 H
atom 6.3728631000000009 7.5348679999999995 4.2088499999999991 H
atom 17.2041369000000017 1.4781320000000000 5.7411500000000002 H
atom 16.8905628000000014 4.4163699999999997 4.4576000000000011 H
atom 6.6864372000000021 4.5966300000000002 5.4923999999999999 H
atom 18.4749371999999994 0.0901300000000000 9.4326000000000008 H
atom 5.1020628000000023 8.9228699999999996 0.5174000000000007 H
atom 6.6864372000000021 4.4163699999999997 0.5174000000000006 H
atom 16.8905628000000014 4.5966300000000002 9.4326000000000008 H
atom 5.1020628000000006 0.0901300000000000 5.4923999999999991 H
atom 18.4749371999999994 8.9228699999999996 4.4576000000000002 H
atom 14.5069281000000014 4.0486395999999996 5.1531050000000009 H
atom 9.0700719000000003 4.9643603999999995 4.7968950000000010 H
atom 20.8585719000000012 0.4578604000000001 0.1781050000000013 H
atom 2.7184281000000015 8.5551396000000004 9.7718949999999989 H
atom 9.0700719000000003 4.0486395999999996 9.7718950000000007 H
atom 14.5069281000000014 4.9643603999999995 0.1781050000000012 H
atom 2.7184281000000001 0.4578604000000001 4.7968949999999992 H
atom 20.8585719000000012 8.5551396000000004 5.1531050000000009 H
atom 14.4361971000000011 2.7868195999999998 8.5530199999999983 H
atom 9.1408029000000024 6.2261803999999996 1.3969800000000010 H
atom 20.9293029000000033 1.7196803999999999 3.5780200000000009 H
atom 2.6476971000000011 7.2933196000000002 6.3719799999999998 H
atom 9.1408029000000006 2.7868195999999998 6.3719800000000006 H
atom 14.4361971000000011 6.2261803999999996 3.5780200000000009 H
atom 2.6476971000000007 1.7196803999999999 1.3969800000000001 H
atom 20.9293029000000033 7.2933196000000002 8.5530200000000018 H
atom 15.6315510000000017 0.7390660000000000 7.9699500000000008 H
atom 7.9454490000000026 8.2739340000000006 1.9800500000000010 H
atom 19.7339489999999991 3.7674339999999997 2.9949500000000011 H
atom 3.8430510000000013 5.2455659999999993 6.9550499999999991 H
atom 7.9454490000000009 0.7390660000000000 6.9550500000000000 H
atom 15.6315510000000035 8.2739340000000006 2.9949500000000011 H
atom 3.8430510000000009 3.7674339999999997 1.9800500000000003 H
atom 19.7339489999999991 5.2455659999999993 7.9699500000000008 H
atom 15.2000919000000039 8.5984020000000001 5.9202500000000011 H
atom 8.3769081000000014 0.4145980000000000 4.0297500000000008 H
atom 20.1654081000000005 4.9210980000000006 0.9452500000000015 H
atom 3.4115919000000008 4.0919020000000002 9.0047499999999996 H
atom 8.3769081000000032 8.5984020000000001 9.0047499999999996 H
atom 15.2000919000000021 0.4145980000000000 0.9452500000000008 H
atom 3.4115919000000017 4.9210980000000006 4.0297499999999999 H
atom 20.1654081000000005 4.0919020000000002 5.9202500000000002 H
atom 13.1182428000000009 0.2974290000000000 4.6168000000000005 H
atom 10.4587572000000026 8.7155709999999988 5.3332000000000015 H
atom 22.2472572000000000 4.2090709999999998 9.5918000000000010 H
atom 1.3297428000000007 4.8039290000000001 0.3582000000000002 H
atom 10.4587572000000009 0.2974290000000000 0.3582000000000006 H
atom 13.1182428000000026 8.7155709999999988 9.5917999999999992 H
atom 1.3297428000000007 4.2090709999999998 5.3332000000000006 H
atom 22.2472572000000000 4.8039290000000001 4.6168000000000013 H
atom 11.9558967000000003 2.3848398000000000 5.3521050000000008 H
atom 11.6211033000000032 6.6281602000000017 4.5978950000000012 H
atom 23.4096033000000006 2.1216602000000000 0.3771050000000016 H
atom 0.1673967000000011 6.8913397999999990 9.5728949999999990 H
atom 11.6211033000000015 2.3848398000000000 9.5728949999999973 H
atom 11.9558967000000038 6.6281602000000017 0.3771050000000011 H
atom 0.1673967000000003 2.1216602000000000 4.5978950000000003 H
atom 23.4096033000000041 6.8913397999999990 5.3521050000000026 H
atom 12.4639810500000010 4.0225019000000000 7.2777285000000012 C
atom 11.1130189500000007 4.9904980999999999 2.6722715000000008 C
atom 22.9015189500000034 0.4839981000000000 2.3027285000000011 C
atom 0.6754810500000014 8.5290019000000008 7.6472714999999996 C
atom 11.1130189500000007 4.0225019000000000 7.6472715000000004 C
atom 12.4639810500000010 4.9904980999999999 2.3027285000000011 C
atom 0.6754810500000001 0.4839981000000000 2.6722714999999995 C
atom 22.9015189499999998 8.5290019000000008 7.2777285000000020 C
atom 13.1651610300000037 5.2428621000000000 7.1309660000000008 C
atom 10.4118389700000034 3.7701378999999999 2.8190340000000007 C
atom 22.2003389700000007 8.2766379000000008 2.1559660000000020 C
atom 1.3766610300000002 0.7363620999999999 7.7940339999999999 C
atom 10.4118389700000016 5.2428621000000000 7.7940340000000008 C
atom 13.1651610300000037 3.7701378999999999 2.1559660000000012 C
atom 1.3766610300000013 8.2766379000000008 2.8190340000000003 C
atom 22.2003389700000007 0.7363620999999999 7.1309660000000008 C
atom 12.4613875800000056 6.4352819999999999 7.3115585000000003 C
atom 11.1156124199999997 2.5777180000000000 2.6384415000000012 C
atom 22.9041124200000041 7.0842179999999999 2.3365585000000020 C
atom 0.6728875800000004 1.9287820000000000 7.6134414999999995 C
atom 11.1156124200000015 6.4352819999999999 7.6134415000000013 C
atom 12.4613875800000020 2.5777180000000000 2.3365585000000006 C
atom 0.6728875800000012 7.0842179999999999 2.6384415000000003 C
atom 22.9041124200000006 1.9287820000000000 7.3115585000000012 C
atom 14.6099595900000025 5.3466017299999997 6.7595325000000006 C
atom 8.9670404100000010 3.6663982699999997 3.1904675000000005 C
atom 20.7555404100000018 8.1728982699999992 1.7845325000000016 C
atom 2.8214595900000008 0.8401017300000000 8.1654675000000001 C
atom 8.9670404100000010 5.3466017299999997 8.1654675000000001 C
atom 14.6099595900000025 3.6663982699999997 1.7845325000000012 C
atom 2.8214595900000017 8.1728982699999992 3.1904675000000000 C
atom 20.7555404100000018 0.8401017300000000 6.7595325000000006 C
atom 15.4285530300000051 6.2225751999999996 7.4724500000000011 C
atom 8.1484469700000002 2.7904247999999998 2.4775500000000004 C
atom 19.9369469700000010 7.2969248000000011 2.4974500000000015 C
atom 3.6400530300000011 1.7160752000000001 7.4525499999999996 C
atom 8.1484469700000020 6.2225751999999996 7.4525500000000005 C
atom 15.4285530300000016 2.7904247999999998 2.4974500000000011 C
atom 3.6400530300000016 7.2969248000000011 2.4775500000000004 C
atom 19.9369469700000010 1.7160752000000001 7.4724500000000003 C
atom 16.7559381300000005 6.4271702999999993 7.0903700000000009 C
atom 6.8210618700000012 2.5858296999999997 2.8596300000000001 C
atom 18.6095618700000003 7.0923297000000005 2.1153700000000022 C
atom 4.9674381299999997 1.9206703000000001 7.8346299999999998 C
atom 6.8210618700000021 6.4271702999999993 7.8346299999999989 C
atom 16.7559381300000005 2.5858296999999997 2.1153700000000009 C
atom 4.9674381300000006 7.0923297000000005 2.8596300000000006 C
atom 18.6095618700000003 1.9206703000000001 7.0903700000000009 C
atom 17.2630793999999987 5.7710238999999994 5.9889050000000008 C
atom 6.3139206000000021 3.2419761000000000 3.9610950000000003 C
atom 18.1024206000000021 7.7484761000000004 1.0139050000000016 C
atom 5.4745794000000014 1.2645239000000001 8.9360949999999999 C
atom 6.3139206000000012 5.7710238999999994 8.9360949999999999 C
atom 17.2630793999999987 3.2419761000000000 1.0139050000000012 C
atom 5.4745794000000014 7.7484761000000004 3.9610950000000007 C
atom 18.1024206000000021 1.2645239000000001 5.9889050000000008 C
atom 16.4798514600000026 4.8931577000000006 5.2804650000000004 C
atom 7.0971485400000018 4.1198423000000002 4.6695349999999998 C
atom 18.8856485400000018 8.6263422999999992 0.3054650000000017 C
atom 4.6913514599999999 0.3866577000000000 9.6445349999999994 C
atom 7.0971485400000018 4.8931577000000006 9.6445349999999994 C
atom 16.4798514600000026 4.1198423000000002 0.3054650000000013 C
atom 4.6913514600000017 8.6263422999999992 4.6695349999999998 C
atom 18.8856485400000018 0.3866577000000000 5.2804650000000004 C
atom 15.1425640200000036 4.6795495999999996 5.6628435000000010 C
atom 8.4344359799999982 4.3334504000000003 4.2871565000000000 C
atom 20.2229359799999990 8.8399503999999993 0.6878435000000017 C
atom 3.3540640200000000 0.1730496000000000 9.2621564999999997 C
atom 8.4344359799999982 4.6795495999999996 9.2621564999999997 C
atom 15.1425640200000036 4.3334504000000003 0.6878435000000011 C
atom 3.3540640200000018 8.8399503999999993 4.2871565000000000 C
atom 20.2229359799999990 0.1730496000000000 5.6628435000000010 C
atom 13.1453563500000019 2.7201234000000007 6.9769400000000008 C
atom 10.4316436500000034 6.2928766000000005 2.9730600000000007 C
atom 22.2201436500000007 1.7863765999999999 2.0019400000000012 C
atom 1.3568563500000010 7.2266233999999994 7.9480599999999990 C
atom 10.4316436500000034 2.7201234000000007 7.9480599999999999 C
atom 13.1453563500000019 6.2928766000000005 2.0019400000000012 C
atom 1.3568563500000002 1.7863765999999999 2.9730599999999998 C
atom 22.2201436500000042 7.2266233999999994 6.9769400000000026 C
atom 14.1881670600000014 2.2280136000000001 7.7530400000000004 C
atom 9.3888329400000021 6.7849864000000002 2.1969600000000002 C
atom 21.1773329400000030 2.2784864000000002 2.7780400000000012 C
atom 2.3996670600000010 6.7345135999999997 7.1719599999999994 C
atom 9.3888329400000003 2.2280136000000001 7.1719600000000003 C
atom 14.1881670600000049 6.7849864000000002 2.7780400000000012 C
atom 2.3996670600000005 2.2784864000000002 2.1969599999999998 C
atom 21.1773329400000030 6.7345135999999997 7.7530400000000004 C
atom 14.8388922600000033 1.0491132000000001 7.3858850000000000 C
atom 8.7381077400000020 7.9638868000000000 2.5641150000000006 C
atom 20.5266077399999993 3.4573868000000001 2.4108850000000013 C
atom 3.0503922600000015 5.5556131999999998 7.5391149999999998 C
atom 8.7381077400000002 1.0491132000000001 7.5391150000000007 C
atom 14.8388922600000033 7.9638868000000000 2.4108850000000013 C
atom 3.0503922600000006 3.4573868000000001 2.5641149999999997 C
atom 20.5266077400000029 5.5556131999999998 7.3858850000000000 C
atom 14.4574163999999996 0.3668291000000000 6.2396450000000003 C
atom 9.1195836000000021 8.6461708999999995 3.7103550000000007 C
atom 20.9080836000000012 4.1396708999999996 1.2646450000000014 C
atom 2.6689164000000014 4.8733290999999994 8.6853549999999995 C
atom 9.1195836000000003 0.3668291000000000 8.6853549999999977 C
atom 14.4574163999999996 8.6461708999999995 1.2646450000000011 C
atom 2.6689164000000005 4.1396708999999996 3.7103550000000003 C
atom 20.9080836000000048 4.8733290999999994 6.2396450000000003 C
atom 13.4058822000000006 0.8427155000000000 5.4754850000000008 C
atom 10.1711178000000029 8.1702844999999993 4.4745150000000011 C
atom 21.9596178000000002 3.6637844999999998 0.5004850000000015 C
atom 1.6173822000000009 5.3492155000000006 9.4495149999999999 C
atom 10.1711178000000011 0.8427155000000000 9.4495149999999999 C
atom 13.4058822000000024 8.1702844999999993 0.5004850000000012 C
atom 1.6173822000000007 3.6637844999999998 4.4745149999999994 C
atom 21.9596178000000002 5.3492155000000006 5.4754850000000017 C
atom 12.7535066100000023 2.0026885999999999 5.8457245000000002 C
atom 10.8234933900000012 7.0103114000000000 4.1042755000000009 C
atom 22.6119933900000021 2.5038114000000000 0.8707245000000015 C
atom 0.9650066100000011 6.5091885999999999 9.0792754999999996 C
atom 10.8234933899999994 2.0026885999999999 9.0792754999999978 C
atom 12.7535066100000058 7.0103114000000000 0.8707245000000012 C
atom 0.9650066100000007 2.5038114000000000 4.1042755000000000 C
atom 22.6119933900000021 6.5091885999999999 5.8457245000000011 C
