#=======================================================
# FHI-aims file: pahs_geometry_fix/CENYEZ.in
# Created using the Atomic Simulation Environment (ASE)
# Tue May 25 14:20:52 2021
#=======================================================
lattice_vector -0.0000000000000017 -10.7899999999999991 -0.0000000000000007 
lattice_vector -11.4266471723335350 0.0000000000000000 0.6988836805950405 
lattice_vector 0.0000000000000000 0.0000000000000000 -21.5440000000000005 
atom -2.8452351459110510 -3.9383499999999998 -20.9606419635318346 H
atom -8.5814120264224858 -6.8516499999999994 0.1155256441268746 H
atom -2.8680884402557174 -9.3333499999999994 -11.0059161961706433 H
atom -8.5585587320778167 -1.4566500000000000 -9.8392001232343116 H
atom -3.2908743856320579 -5.0712999999999990 -1.4360654999886278 H
atom -8.1357727867014766 -5.7187000000000001 -19.4090508194163327 H
atom -2.4224492005347109 -10.4662999999999986 -8.9864926597138535 H
atom -9.0041979717988259 -0.3237000000000003 -11.8586236596911103 H
atom -2.6624087911537146 -7.3371999999999984 -1.6253121024213553 H
atom -8.7642383811798208 -3.4527999999999990 -19.2198042169836043 H
atom -3.0509147950130528 -1.9421999999999993 -8.7972460572811251 H
atom -8.3757323773204817 -8.8477999999999994 -12.0478702621238352 H
atom -1.7139970758500320 -9.2901899999999991 -0.7569274479107453 H
atom -9.7126500964835039 -1.4998100000000001 -20.0881888714942143 H
atom -3.9993265103167377 -3.8951899999999995 -9.6656307117917351 H
atom -7.4273206620167995 -6.8948099999999997 -11.1794856076132234 H
atom -0.5484790642720119 -10.5310399999999991 -20.5194295833314371 H
atom -10.8781681080615247 -0.2589600000000002 -0.3256867360735224 H
atom -5.1648445218947581 -5.1360399999999995 -11.4471285763710409 H
atom -6.2618026504387769 -5.6539599999999997 -9.3979877430339176 H
atom -11.1181276986805315 -9.2901899999999991 -17.6539301787810246 H
atom -0.3085194736530047 -1.4998100000000001 -3.1911861406239348 H
atom -6.0218430598197754 -3.8951899999999995 -13.6137443003264149 H
atom -5.4048041125137614 -6.8948099999999997 -7.2313720190785462 H
atom -2.6852620854983815 -5.8158099999999990 -17.5449303350601689 H
atom -8.7413850868351552 -4.9741899999999992 -3.3001859843447954 H
atom -3.0280615006683869 -0.4208099999999991 -14.4216278246423126 H
atom -8.3985856716651490 -10.3691899999999997 -6.4234884947626423 H
atom -0.6284655944783429 -3.0859399999999999 -19.6527773975672737 H
atom -10.7981815778551926 -7.7040599999999992 -1.1923389218376865 H
atom -5.0848579916884242 -8.4809400000000004 -12.3137807621352096 H
atom -6.3417891806451117 -2.3090599999999983 -8.5313355572697507 H
atom -11.1181276986805297 -1.1761099999999998 -17.9986341787810247 H
atom -0.3085194736530060 -9.6138899999999996 -2.8464821406239347 H
atom -6.0218430598197745 -6.5711099999999991 -13.2690403003264148 H
atom -5.4048041125137622 -4.2188900000000000 -7.5760760190785463 H
atom -10.5010887513745210 -10.7360499999999988 -15.8173418975331597 H
atom -0.9255584209590146 -0.0539500000000000 -5.0277744218717997 H
atom -6.6388820071257841 -5.3410499999999992 -15.4503325815742816 H
atom -4.7877651652077526 -5.4489500000000000 -5.3947837378306787 H
atom -10.7639016363381916 -10.4986699999999988 -13.3883395728794738 H
atom -0.6627455359953444 -0.2913300000000003 -7.4567767465254846 H
atom -6.3760691221621126 -5.1036699999999993 -17.8793349062279674 H
atom -5.0505780501714224 -5.6863299999999999 -2.9657814131769933 H
atom -11.4152205251612013 -0.4208099999999991 -11.1079272030855538 H
atom -0.0114266471723352 -10.3691899999999997 -9.7371891163194046 H
atom -5.7247502333391003 -5.8158099999999990 -20.1597472760218857 H
atom -5.7018969389944347 -4.9741899999999992 -0.6853690433830737 H
atom -1.2112246002673523 -2.5572300000000010 -11.7751183298569249 H
atom -10.2154225720661813 -8.2327699999999986 -9.0699979895480336 H
atom -4.5020989858994129 -7.9522299999999992 -20.1914398298455531 H
atom -6.9245481864341221 -2.8377699999999999 -0.6536764895594066 H
atom -2.3881692590177077 -4.4238999999999997 -13.0173173107556366 H
atom -9.0384779133158268 -6.3660999999999994 -7.8277990086493237 H
atom -3.3251543271490607 -9.8188999999999993 -18.9492408489468431 H
atom -8.1014928451844757 -0.9710999999999996 -1.8958754704581162 H
atom -3.0052082063237222 -5.6539599999999997 -15.0262575920035033 H
atom -8.4214389660098146 -5.1360399999999995 -5.8188587274014569 H
atom -2.7081153798430466 -0.2589600000000002 -16.9403005676989764 H
atom -8.7185317924904897 -10.5310399999999991 -3.9048157517059838 H
atom -0.9712650096483514 -8.2759299999999989 -16.6156508871494246 H
atom -10.4553821626851846 -2.5140699999999998 -4.2294654322555356 H
atom -4.7420585765184180 -2.8809299999999998 -15.3509072725530586 H
atom -6.6845885958151188 -7.9090699999999989 -5.4942090468518998 H
atom -10.3753956324788508 -5.4921099999999985 -17.9147976180197048 H
atom -1.0512515398546858 -5.2978899999999998 -2.9303187013852545 H
atom -6.7645751260214526 -0.0971100000000001 -13.3528768610877364 H
atom -4.6620720463120842 -10.6928899999999985 -7.4922394583172238 H
atom -9.0384779133158268 -3.8412399999999982 -16.8762790086493233 H
atom -2.3881692590177082 -6.9487600000000000 -3.9688373107556361 H
atom -8.1014928451844774 -9.2362399999999987 -14.3913954704581180 H
atom -3.3251543271490580 -1.5537600000000000 -6.4537208489468449 H
atom -8.3185991414588134 -2.9240900000000001 -14.5504686805268104 H
atom -3.1080480308747216 -7.8659099999999995 -6.2946476388781507 H
atom -8.8213716170414909 -8.3190899999999992 -16.7172057985806291 H
atom -2.6052755552920450 -2.4709099999999995 -4.1279105208243303 H
atom -8.2614659055971451 -2.8701400000000001 -12.2487550989297862 H
atom -3.1651812667363908 -7.9198599999999990 -8.5963612204751723 H
atom -8.8785048529031574 -8.2651399999999988 -19.0189193801776568 H
atom -2.5481423194303772 -2.5248599999999994 -1.8261969392273032 H
atom -8.7870916755244881 -4.0354599999999996 -10.1483824496224138 H
atom -2.6395554968090487 -6.7545399999999995 -10.6967338697825465 H
atom -8.3528790829758162 -9.4304600000000001 0.4247079705149763 H
atom -3.0737680893577202 -1.3595399999999986 -21.2698242899199350 H
atom -10.0897294531705128 -5.9344999999999990 -10.0471657100345801 H
atom -1.3369177191630230 -4.8554999999999993 -10.7979506093703783 H
atom -7.0502413053297914 -0.5395000000000004 0.3234912309271422 H
atom -4.3764058670037445 -10.2504999999999988 -21.1686075503321014 H
atom -11.4152205251612031 -7.6501100000000006 -11.3018232030855543 H
atom -0.0114266471723328 -3.1398900000000003 -9.5432931163194041 H
atom -5.7247502333391003 -2.2551099999999993 -19.9658512760218834 H
atom -5.7018969389944356 -8.5348899999999990 -0.8792650433830764 H
atom -0.8912784794420153 -8.3298799999999993 -14.1429830729135855 H
atom -10.5353686928915184 -2.4601199999999994 -6.7021332464913703 H
atom -4.8220451067247527 -2.9348800000000002 -17.8235750867888925 H
atom -6.6046020656087840 -7.8551199999999994 -3.0215412326160678 H
atom -1.7962689354908326 -5.4338439999999997 -19.9303642854104623 C
atom -9.6303782368427040 -5.3561559999999995 -0.9147520339944973 C
atom -3.9170546506759343 -0.0388440000000005 -12.0361938742920174 C
atom -7.5095925216576012 -10.7511559999999982 -8.8089224451129411 C
atom -2.4281625241208773 -4.8544209999999994 -20.9883056178735536 C
atom -8.9984846482126599 -5.9355789999999997 0.1431892984685934 C
atom -3.2851610620458915 -10.2494209999999981 -10.9782525418289243 C
atom -8.1414861102876444 -0.5405790000000004 -9.8668637775760342 C
atom -2.7149713681464505 -5.5180060000000006 -0.6504628374906196 C
atom -8.7116758041870881 -5.2719940000000003 -20.1946534819143402 C
atom -2.9983522180203179 -0.1230059999999996 -9.7720953222118609 C
atom -8.4282949543132180 -10.6669939999999990 -11.0730209971930993 C
atom -2.3630306352385761 -6.8462550000000002 -0.7387748548529468 C
atom -9.0636165370949602 -3.9437450000000003 -20.1063414645520133 C
atom -3.3502929509281918 -1.4512549999999993 -9.6837833048495341 C
atom -8.0763542214053423 -9.3387449999999994 -11.1613330145554244 C
atom -1.6831451284847307 -7.5022869999999999 -21.2471584338483517 C
atom -9.7435020438488067 -3.2877129999999992 0.4020421144433931 C
atom -4.0301784576820383 -2.1072869999999990 -10.7193997258541298 C
atom -7.3964687146514985 -8.6827129999999997 -10.1257165935508304 C
atom -1.3517723604870582 -8.8888019999999983 -21.3966900605856090 C
atom -10.0748748118464793 -1.9011980000000002 0.5515737411806494 C
atom -4.3615512256797109 -3.4938019999999996 -10.5698680991168708 C
atom -7.0650959466538250 -7.2961979999999995 -10.2752482202880842 C
atom -0.7404467367672143 -9.5437549999999991 -20.4128947374974423 C
atom -10.6862004355663220 -1.2462449999999992 -0.4322215819075182 C
atom -4.9728768493995554 -4.1487549999999995 -11.5536634222050392 C
atom -6.4537703229339813 -6.6412449999999987 -9.2914528971999211 C
atom -0.3553687270595746 -8.8844859999999990 -19.2364463175334954 C
atom -11.0712784452739630 -1.9055139999999997 -1.6086700018714648 C
atom -5.3579548591071946 -3.4894859999999999 -12.7301118421689861 C
atom -6.0686923132263404 -7.3005139999999988 -8.1150044772359724 C
atom -0.6078976295681455 -7.5314199999999989 -19.0378769881923446 C
atom -10.8187495427653904 -3.2585800000000003 -1.8072393312126143 C
atom -5.1054259565986220 -2.1364199999999993 -12.9286811715101351 C
atom -6.3212212157349148 -8.6535799999999998 -7.9164351478948234 C
atom -1.3369177191630259 -6.8192799999999991 -20.0274002093703807 C
atom -10.0897294531705128 -3.9707199999999996 -0.8177161100345793 C
atom -4.3764058670037427 -1.4242799999999987 -11.9391579503320990 C
atom -7.0502413053297923 -9.3657199999999996 -8.9059583690728612 C
atom -2.2019149101086715 -5.0195079999999992 -17.4646187147493350 C
atom -9.2247322622248635 -5.7704919999999991 -3.3804976046556252 C
atom -3.5114086760580960 -10.4145079999999997 -14.5019394449531465 C
atom -7.9152384962754399 -0.3754920000000005 -6.3431768744518120 C
atom -1.6660051577262307 -4.6289100000000003 -18.6952427593692434 C
atom -9.7606420146073063 -6.1610899999999988 -2.1498735600357159 C
atom -4.0473184284405397 -10.0239099999999990 -13.2713154003332363 C
atom -7.3793287438929962 -0.7660899999999994 -7.5738009190717239 C
atom -0.9552677036070829 -3.4128769999999999 -18.7365589243022548 C
atom -10.4713794687264521 -7.3771229999999992 -2.1085573951027041 C
atom -4.7580558825596855 -8.8078769999999995 -13.2299992354002249 C
atom -6.6685912897738504 -1.9821229999999996 -7.6151170840047335 C
atom -0.7313054190293448 -2.6597349999999991 -17.6062706444419170 C
atom -10.6953417533041897 -8.1302649999999996 -3.2388456749630419 C
atom -4.9820181671374231 -8.0547349999999991 -14.3602875152605645 C
atom -6.4446290051961146 -2.7352649999999992 -6.4848288041443984 C
atom -1.2135099297018215 -3.1226259999999995 -16.3595417531208049 C
atom -10.2131372426317153 -7.6673739999999997 -4.4855745662841500 C
atom -4.4998136564649478 -8.5176259999999999 -15.6070164065816748 C
atom -6.9268335158685890 -2.2723739999999988 -5.2380999128232872 C
atom -11.3683712717546346 -1.4555710000000002 -16.9405990261759953 C
atom -0.0582759005789012 -9.3344289999999983 -3.9045172932289636 C
atom -5.7715994867456697 -6.8505709999999995 -14.3270754529314459 C
atom -5.6550476855878671 -3.9394289999999996 -6.5180408664735143 C
atom -11.0918464101841625 -0.7919859999999990 -15.8113712112463940 C
atom -0.3348007621493728 -9.9980139999999995 -5.0337451081585671 C
atom -6.0481243483161400 -6.1869860000000001 -15.4563032678610437 C
atom -5.3785228240173959 -4.6030139999999991 -5.3888130515439121 C
atom -0.1222651247439670 -1.2354549999999993 -15.2262843446176319 C
atom -11.3043820475895664 -9.5545449999999992 -5.6188319747873283 C
atom -5.5910584614227989 -6.6304549999999995 -16.7402738150848478 C
atom -5.8355887109107361 -4.1595449999999996 -4.1048425043201124 C
atom -0.9129891090694495 -2.4212760000000002 -15.1779215939204573 C
atom -10.5136580632640868 -8.3687239999999985 -5.6671947254845048 C
atom -4.8003344770973184 -7.8162759999999984 -16.7886365657820242 C
atom -6.6263126952362184 -2.9737239999999980 -4.0564797536229351 C
atom -11.2701021060725655 -0.5751070000000001 -13.3487614258291103 C
atom -0.1565450662609703 -10.2148929999999982 -7.4963548935758499 C
atom -5.8698686524277370 -5.9701069999999996 -17.9189130532783309 C
atom -5.5567785199057980 -4.8198929999999995 -2.9262032661266288 C
atom -0.2799528557221714 -1.0304450000000003 -12.8015573498254209 C
atom -11.1466943166113648 -9.7595549999999989 -8.0435589695795393 C
atom -5.4333707304445973 -6.4254449999999990 -19.1650008098770606 C
atom -5.9932764418889395 -4.3645549999999993 -1.6801155095278986 C
atom -1.0512515398546840 -2.1957650000000002 -12.7651547013852547 C
atom -10.3753956324788508 -8.5942349999999994 -8.0799616180197003 C
atom -4.6620720463120824 -7.5907649999999993 -19.2014034583172233 C
atom -6.7645751260214544 -3.1992349999999994 -1.6437128610877370 C
atom -1.3654843370938559 -2.8960359999999996 -13.9222378001688938 C
atom -10.0611628352396778 -7.8939639999999995 -6.9228785192360647 C
atom -4.3478392490729112 -8.2910359999999983 -18.0443203595335895 C
atom -7.0788079232606247 -2.4989640000000000 -2.8007959598713708 C
atom -2.1344976917919034 -4.1314909999999996 -13.9139821284648448 C
atom -9.2921494805416316 -6.6585089999999996 -6.9311341909401101 C
atom -3.5788258943748636 -9.5264910000000000 -18.0525760312376349 C
atom -7.8478212779586727 -1.2635089999999984 -2.7925402881673245 C
atom -2.4601571362034100 -4.7702590000000002 -15.0337415435678885 C
atom -8.9664900361301250 -6.0197409999999998 -5.8113747758370700 C
atom -3.2531664499633584 -10.1652589999999989 -16.9328166161345948 C
atom -8.1734807223701775 -0.6247409999999994 -3.9122997032703650 C
atom -1.9882366079860350 -4.3095259999999991 -16.3143118395764617 C
atom -9.4384105643474996 -6.4804740000000001 -4.5308044798284941 C
atom -3.7250869781807334 -9.7045259999999995 -15.6522463201260180 C
atom -7.7015601941528020 -1.0854739999999989 -5.1928699992789413 C
atom -0.3965046568799730 -7.5702639999999990 -16.5495479362833535 C
atom -11.0301425154535622 -3.2197359999999997 -4.2955683831216058 C
atom -5.3168189292867947 -2.1752639999999999 -15.4170102234191280 C
atom -6.1098282430467421 -8.6147359999999988 -5.4281060959858323 C
atom -0.0651318888823027 -6.9886829999999991 -17.7741251630206065 C
atom -11.3615152834512347 -3.8013169999999992 -3.0709911563843506 C
atom -5.6481916972844664 -1.5936830000000004 -14.1924329966818714 C
atom -5.7784554750490704 -9.1963169999999987 -6.6526833227230870 C
atom -10.5925019287531885 -5.9150779999999994 -17.0569940280883969 C
atom -0.8341452435803484 -4.8749219999999998 -3.7881222913165629 C
atom -6.5474688297471149 -0.5200779999999989 -14.2106804510190425 C
atom -4.8791783425864219 -10.2699219999999993 -6.6344358683859177 C
atom -10.1022987650600786 -5.4014739999999986 -15.8848209379859249 C
atom -1.3243484072734577 -5.3885259999999988 -4.9602953814190354 C
atom -7.0376719934402230 -0.0064740000000005 -15.3828535411215146 C
atom -4.3889751788933129 -10.7835259999999984 -5.4622627782834456 C
atom -10.4770927923126198 -5.9862919999999988 -14.6446615532624094 C
atom -0.9495543800209170 -4.8037080000000003 -6.2004547661425518 C
atom -6.6628779661876836 -0.5912919999999995 -16.6230129258450319 C
atom -4.7637692061458532 -10.1987079999999999 -4.2221033935599284 C
atom -9.2498708860039969 -4.2264430000000006 -15.8400096605583141 C
atom -2.1767762863295395 -6.5635570000000003 -5.0051066588466462 C
atom -7.8900998724963074 -9.6214429999999993 -15.4276648185491236 C
atom -3.5365472998372280 -1.1685569999999994 -5.4174515008558322 C
atom -8.8625075468618899 -3.7031279999999991 -14.6744730173304863 C
atom -2.5641396254716455 -7.0868719999999987 -6.1706433020744731 C
atom -8.2774632116384126 -9.0981279999999991 -16.5932014617769532 C
atom -3.1491839606951220 -1.6918719999999992 -4.2519148576280053 C
atom -9.2121629503352978 -4.2749979999999983 -13.4164615767042790 C
atom -2.2144842219982412 -6.5150020000000008 -7.4286547427006813 C
atom -7.9278078081650074 -9.6699979999999996 -17.8512129024031623 C
atom -3.4988393641685276 -1.1200019999999988 -2.9939034170017971 C
atom -10.0348815467433106 -5.4338439999999997 -13.4264651517014357 C
atom -1.3917656255902255 -5.3561559999999995 -7.4186511677035236 C
atom -7.1050892117569910 -0.0388440000000005 -17.8412093274060055 C
atom -4.3215579605765448 -10.7511559999999982 -3.0039069919989552 C
atom -8.8042316462829895 -3.7419719999999996 -12.2134037241015214 C
atom -2.6224155260505477 -7.0480279999999995 -8.6317125953034388 C
atom -8.3357391122173148 -9.1369720000000001 -19.0542707550059198 C
atom -3.0909080601162198 -1.6530279999999986 -1.7908455643990391 C
atom -9.1584577086253294 -4.3278689999999997 -11.0283623300030769 C
atom -2.2681894637082092 -6.4621309999999994 -9.8167539894018834 C
atom -7.9815130498749758 -9.7228689999999993 -20.2393121491043644 C
atom -3.4451341224585597 -1.0671309999999998 -0.6058041703005941 C
atom -9.9594656754059105 -5.4737669999999996 -11.0009145839933620 C
atom -1.4671814969276276 -5.3162329999999995 -9.8442017354115965 C
atom -7.1805050830943946 -0.0787669999999985 -20.2667598951140775 C
atom -4.2461420892391439 -10.7112330000000000 -0.5783564242908822 C
atom -10.4039622504096840 -6.0262149999999997 -12.1909640088182147 C
atom -1.0226849219238512 -4.7637849999999995 -8.6541523105867437 C
atom -6.7360085080906194 -0.6312149999999987 -19.0767104702892247 C
atom -4.6906386642429174 -10.1587850000000000 -1.7684058491157351 C
atom -11.2643887824863995 -7.1926140000000007 -12.2245140676694088 C
atom -0.1622583898471354 -3.5966666666666667 -8.6206022517355496 C
atom -5.8755819760139039 -1.7976139999999996 -19.0431604114380306 C
atom -5.5510651963196329 -8.9923859999999998 -1.8019559079669285 C
atom -0.3005208206323718 -7.6608999999999989 -14.0821673592003531 C
atom -11.1261263517011635 -3.1291000000000002 -6.7629489602046080 C
atom -5.4128027655343960 -2.2658999999999994 -17.8843908005021319 C
atom -6.0138444067991408 -8.5240999999999989 -2.9607255189028279 C
atom -11.3512313009961350 -7.1041359999999996 -14.6536745516968860 C
atom -0.0754158713374012 -3.6858640000000000 -6.1914417677080724 C
atom -5.7887394575041684 -1.7091359999999984 -16.6139999274105534 C
atom -5.6379077148293675 -9.0808640000000000 -4.2311163919944059 C
