#=======================================================
# FHI-aims file: pahs_geometry_fix/TERPHO02.in
# Created using the Atomic Simulation Environment (ASE)
# Tue May 25 14:20:53 2021
#=======================================================
lattice_vector 0.0000000000000010 6.0240000000000000 0.0000000000000004 
lattice_vector -0.0000000000000000 -0.0000000000000000 11.7289999999999992 
lattice_vector 18.5820000000000007 -0.0000000000000000 0.0000000000000011 
atom 3.1589400000000012 1.5782880000000001 2.8853339999999994 H
atom 6.1320600000000010 4.4457120000000003 8.7498339999999999 H
atom 15.4230600000000013 4.5902880000000001 2.9791660000000011 H
atom 12.4499400000000016 1.4337119999999999 8.8436659999999989 H
atom 1.7652900000000005 3.4216319999999998 3.7415509999999998 H
atom 7.5257100000000010 2.6023679999999998 9.6060509999999990 H
atom 16.8167100000000005 0.4096320000000001 2.1229490000000002 H
atom 11.0562900000000024 5.6143680000000007 7.9874490000000016 H
atom 2.4899880000000016 4.6746240000000006 5.6651069999999999 H
atom 6.8010120000000001 1.3493760000000001 11.5296069999999986 H
atom 16.0920120000000004 1.6626240000000001 0.1993930000000011 H
atom 11.7809880000000007 4.3613759999999999 6.0638930000000011 H
atom 4.7012460000000011 4.5240239999999989 6.5682400000000003 H
atom 4.5897540000000001 1.4999759999999998 0.7037400000000003 H
atom 13.8807540000000014 1.5120240000000000 11.0252599999999994 H
atom 13.9922460000000015 4.5119759999999998 5.1607600000000007 H
atom 6.2435520000000011 0.5843280000000001 6.4744080000000004 H
atom 3.0474480000000010 5.4396719999999998 0.6099080000000004 H
atom 12.3384480000000014 3.5963279999999997 11.1190919999999984 H
atom 15.5345519999999997 2.4276720000000003 5.2545919999999997 H
atom 8.6777940000000005 0.5903520000000000 7.5417470000000009 H
atom 0.6132060000000009 5.4336479999999998 1.6772470000000002 H
atom 9.9042060000000021 3.6023519999999998 10.0517529999999997 H
atom 17.9687939999999990 2.4216480000000002 4.1872530000000010 H
atom 9.9599520000000012 2.4096000000000002 7.5534760000000007 H
atom 17.9130479999999999 3.6143999999999998 1.6889760000000011 H
atom 8.6220480000000013 5.4215999999999998 10.0400239999999989 H
atom 0.6689520000000001 0.6024000000000000 4.1755239999999993 H
atom 9.3653280000000017 4.6264320000000003 6.4392210000000016 H
atom 18.5076719999999995 1.3975680000000001 0.5747210000000011 H
atom 9.2166720000000009 1.6144320000000001 11.1542789999999972 H
atom 0.0743280000000007 4.4095680000000002 5.2897790000000002 H
atom 7.3213080000000010 4.6143840000000003 5.4422560000000013 H
atom 1.9696920000000002 1.4096160000000000 11.3067559999999983 H
atom 11.2606920000000006 1.6023840000000000 0.4222440000000007 H
atom 16.6123080000000023 4.4216160000000002 6.2867440000000014 H
atom 7.5814560000000002 2.3674320000000000 3.5421580000000001 H
atom 1.7095440000000006 3.6565680000000000 9.4066580000000002 H
atom 11.0005440000000014 5.3794320000000004 2.3223420000000008 H
atom 16.8724559999999997 0.6445680000000000 8.1868420000000004 H
atom 9.0680160000000001 0.9096240000000000 2.2871550000000003 H
atom 0.2229840000000008 5.1143760000000000 8.1516549999999999 H
atom 9.5139840000000007 3.9216239999999996 3.5773450000000002 H
atom 18.3590160000000004 2.1023760000000000 9.4418450000000007 H
atom 8.1760800000000007 4.4818559999999996 1.4192090000000006 H
atom 1.1149200000000001 1.5421440000000000 7.2837090000000000 H
atom 10.4059200000000018 1.4698560000000001 4.4452910000000001 H
atom 17.4670799999999993 4.5541440000000000 10.3097910000000006 H
atom 5.5002720000000007 4.0601760000000002 1.9822010000000008 H
atom 3.7907280000000001 1.9638240000000000 7.8467010000000004 H
atom 13.0817280000000000 1.0481760000000000 3.8822990000000011 H
atom 14.7912720000000029 4.9758239999999994 9.7467989999999993 H
atom 4.2366960000000011 5.6505120000000000 3.2606620000000008 H
atom 5.0543040000000010 0.3734879999999999 9.1251619999999996 H
atom 14.3453040000000005 2.6385119999999995 2.6038380000000010 H
atom 13.5276960000000006 3.3854880000000005 8.4683380000000010 H
atom 4.8666258000000013 2.0258712000000001 4.1978090999999988 C
atom 4.4243742000000008 3.9981287999999999 10.0623091000000002 C
atom 13.7153742000000012 5.0378712000000005 1.6666909000000012 C
atom 14.1576258000000017 0.9861287999999999 7.5311909000000004 C
atom 3.5900424000000006 2.2258680000000002 3.7157472000000000 C
atom 5.7009576000000015 3.7981319999999998 9.5802471999999987 C
atom 14.9919576000000010 5.2378680000000006 2.1487528000000009 C
atom 12.8810424000000019 0.7861320000000001 8.0132527999999983 C
atom 2.6925318000000007 3.0981432000000000 4.2599727999999999 C
atom 6.5984682000000019 2.9258567999999996 10.1244727999999995 C
atom 15.8894681999999996 0.0861432000000000 1.6045272000000008 C
atom 11.9835318000000033 5.9378568000000005 7.4690272000000011 C
atom 3.1496490000000006 3.9264432000000005 5.3226201999999994 C
atom 6.1413510000000011 2.0975567999999996 11.1871201999999972 C
atom 15.4323510000000006 0.9144431999999998 0.5418798000000009 C
atom 12.4406490000000005 5.1095568000000000 6.4063798000000007 C
atom 4.3946430000000012 3.7433135999999996 5.8211026999999991 C
atom 4.8963570000000010 2.2806864000000000 11.6856026999999969 C
atom 14.1873570000000004 0.7313136000000000 0.0433973000000009 C
atom 13.6856430000000024 5.2926864000000000 5.9078973000000010 C
atom 5.2921536000000016 2.8270632000000000 5.2932976999999992 C
atom 3.9988464000000006 3.1969367999999996 11.1577976999999997 C
atom 13.2898464000000018 5.8390632000000000 0.5712023000000011 C
atom 14.5831536000000010 0.1849368000000000 6.4357023000000000 C
atom 6.6189084000000014 2.6824871999999993 5.9395655999999990 C
atom 2.6720916000000008 3.3415127999999998 0.0750656000000004 C
atom 11.9630916000000038 5.6944872000000002 11.6539344000000007 C
atom 15.9099084000000008 0.3295128000000000 5.7894344000000002 C
atom 7.0016976000000009 1.4915423999999999 6.5436090999999994 C
atom 2.2893024000000008 4.5324575999999999 0.6791091000000004 C
atom 11.5803024000000008 4.5035424000000006 11.0498908999999994 C
atom 16.2926976000000003 1.5204576000000001 5.1853909000000007 C
atom 8.2504080000000002 1.4090136000000000 7.1523442000000008 C
atom 1.0405920000000006 4.6149864000000003 1.2878441999999999 C
atom 10.3315920000000023 4.4210136000000002 10.4411557999999989 C
atom 17.5414080000000006 1.6029864000000000 4.5766558000000002 C
atom 9.0996054000000015 2.4638160000000000 7.1605545000000008 C
atom 0.1913946000000006 3.5601840000000000 1.2960545000000001 C
atom 9.4823946000000010 5.4758159999999991 10.4329454999999971 C
atom 18.3906054000000019 0.5481840000000000 4.5684455000000010 C
atom 8.7223907999999994 3.6372911999999999 6.5565110000000013 C
atom 0.5686092000000004 2.3867088000000001 0.6920109999999999 C
atom 9.8596091999999995 0.6252912000000000 11.0369890000000002 C
atom 18.0133907999999998 5.3987087999999996 5.1724890000000006 C
atom 7.4941206000000005 3.7463256000000000 5.9571591000000010 C
atom 1.7968794000000006 2.2776744000000000 0.0926591000000003 C
atom 11.0878794000000003 0.7343256000000000 11.6363408999999987 C
atom 16.7851205999999991 5.2896744000000000 5.7718409000000008 C
atom 5.7678528000000009 1.0746816000000001 3.4987607000000005 C
atom 3.5231472000000008 4.9493184000000001 9.3632606999999997 C
atom 12.8141472000000007 4.0866816000000004 2.3657393000000009 C
atom 15.0588528000000004 1.9373183999999997 8.2302393000000009 C
atom 7.0797420000000004 1.4072063999999997 3.1762132000000003 C
atom 2.2112580000000008 4.6167936000000003 9.0407132000000008 C
atom 11.5022580000000012 4.4192064000000002 2.6882868000000006 C
atom 16.3707419999999999 1.6047936000000003 8.5527868000000016 C
atom 7.9084991999999996 0.5271000000000000 2.4713003000000002 C
atom 1.3825008000000008 5.4969000000000001 8.3358003000000007 C
atom 10.6735008000000011 3.5391000000000004 3.3931997000000003 C
atom 17.1994992000000018 2.4848999999999997 9.2576996999999999 C
atom 7.4346582000000012 5.3499144000000003 2.0314628000000003 C
atom 1.8563418000000003 0.6740856000000000 7.8959627999999995 C
atom 11.1473418000000013 2.3379143999999998 3.8330372000000006 C
atom 16.7256582000000016 3.6860856000000002 9.6975372000000011 C
atom 6.0948960000000012 4.9963056000000003 2.3270336000000005 C
atom 3.1961040000000001 1.0276944000000001 8.1915335999999996 C
atom 12.4871040000000022 1.9843056000000001 3.5374664000000005 C
atom 15.3858960000000007 4.0396944000000001 9.4019664000000009 C
atom 5.2977282000000017 5.8637615999999992 3.0507129000000006 C
atom 3.9932718000000005 0.1602384000000000 8.9152129000000002 C
atom 13.2842718000000009 2.8517616000000001 2.8137871000000008 C
atom 14.5887282000000020 3.1722383999999999 8.6782871000000021 C
