#=======================================================
# FHI-aims file: pahs_geometry_fix/KUBVUY.in
# Created using the Atomic Simulation Environment (ASE)
# Tue May 25 14:20:53 2021
#=======================================================
lattice_vector -9.0548271330850234 0.0000000000000000 1.9527607610629798 
lattice_vector 0.0000000000000000 0.0000000000000000 -12.5600000000000005 
lattice_vector -0.0000000000000040 -24.8500000000000014 -0.0000000000000015 
atom -7.6966030631222715 -8.2253499999999971 0.4792066469035313 H
atom -1.3582240699627564 -16.6246500000000026 -11.0864458858405559 H
atom -1.3582240699627570 -20.6503499999999995 -4.8064458858405548 H
atom -7.6966030631222706 -4.1996500000000010 -5.8007933530964673 H
atom -0.6791120349813767 -8.2501999999999995 -0.3936229429202778 H
atom -8.3757150981036510 -16.5997999999999983 -10.2136162960167454 H
atom -8.3757150981036510 -20.6752000000000002 -3.9336162960167447 H
atom -0.6791120349813761 -4.1748000000000012 -6.6736229429202760 H
atom -2.1459940305411513 -10.0891000000000020 -0.6675956996280743 H
atom -6.9088331025438761 -14.7608999999999977 -9.9396435393089497 H
atom -6.9088331025438769 -22.5141000000000027 -3.6596435393089481 H
atom -2.1459940305411509 -2.3358999999999965 -6.9475956996280752 H
atom -1.5936495754229676 -11.9031500000000001 -2.0552741060529156 H
atom -7.4611775576620616 -12.9468500000000013 -8.5519651328841046 H
atom -7.4611775576620634 -24.3281500000000008 -2.2719651328841066 H
atom -1.5936495754229656 -0.5218500000000005 -8.3352741060529159 H
atom -7.3615744591981258 -13.9905499999999989 -3.1852055012557985 H
atom -1.6932526738869016 -10.8594500000000025 -7.4220337376812235 H
atom -1.6932526738869011 -1.5655499999999960 -1.1420337376812240 H
atom -7.3615744591981267 -23.2844500000000032 -9.4652055012558005 H
atom -5.2155804286569767 -14.0402500000000003 -4.0876098016277247 H
atom -3.8392467044280520 -10.8097499999999993 -6.5196294373092973 H
atom -3.8392467044280516 -1.6152499999999987 -0.2396294373092960 H
atom -5.2155804286569776 -23.2347500000000018 -10.3676098016277258 H
atom -3.6943694702986916 -12.2262000000000004 -3.7625536094863050 H
atom -5.3604576627863363 -12.6238000000000010 -6.8446856294507175 H
atom -5.3604576627863381 -24.6512000000000029 -0.5646856294507177 H
atom -3.6943694702986907 -0.1987999999999974 -10.0425536094863048 H
atom -4.3915911595462367 -10.4370000000000012 -2.3938710308844557 H
atom -4.6632359735387912 -14.4130000000000020 -8.2133682080525645 H
atom -4.6632359735387920 -22.8620000000000019 -1.9333682080525663 H
atom -4.3915911595462358 -1.9879999999999991 -8.6738710308844560 H
atom -8.9914433431534295 -14.2142000000000017 -0.1333085642644639 H
atom -0.0633837899315979 -10.6358000000000015 -10.4739306746725589 H
atom -0.0633837899315965 -1.7891999999999961 -4.1939306746725586 H
atom -8.9914433431534313 -23.0608000000000040 -6.4133085642644634 H
atom -1.3491692428296713 -16.0779500000000013 -2.1582386466016161 H
atom -7.7056578902553561 -8.7720500000000001 -8.4490005923354037 H
atom -7.7056578902553552 -3.6529500000000006 -2.1690005923354057 H
atom -1.3491692428296731 -21.1970500000000008 -8.4382386466016186 H
atom -2.6258998685946588 -16.2767499999999998 -4.1060193792917374 H
atom -6.4289272644903681 -8.5732499999999998 -6.5012198596452855 H
atom -6.4289272644903672 -3.8517499999999982 -0.2212198596452861 H
atom -2.6258998685946606 -20.9982500000000023 -10.3860193792917386 H
atom -2.5172419429976398 -14.5124000000000031 -5.7496925084244923 H
atom -6.5375851900873885 -10.3376000000000019 -4.8575467305125297 H
atom -6.5375851900873867 -2.0873999999999966 -11.1375467305125291 H
atom -2.5172419429976403 -22.7626000000000026 0.5303074915755069 H
atom -0.9507568489739304 -12.7729000000000017 -5.5097601200883872 H
atom -8.1040702841110974 -12.0770999999999997 -5.0974791188486330 H
atom -8.1040702841110956 -0.3478999999999975 1.1825208811513663 H
atom -0.9507568489739322 -24.5021000000000022 -11.7897601200883901 H
atom -5.3332931813870799 -10.9588500000000000 0.8110560882660940 H
atom -3.7215339516979480 -13.8911499999999997 -11.4182953272031149 H
atom -3.7215339516979493 -23.3838499999999989 -5.1382953272031164 H
atom -5.3332931813870781 -1.4661500000000014 -5.4689439117339074 H
atom -3.7849177416295419 -11.1327999999999996 -9.9979060018756751 H
atom -5.2699093914554860 -13.7172000000000001 -0.6093332370613467 H
atom -5.2699093914554878 -23.5578000000000003 -6.8893332370613480 H
atom -3.7849177416295410 -1.2921999999999985 -3.7179060018756758 H
atom -2.3270905732028524 -9.4430000000000014 -9.5210204844068151 H
atom -6.7277365598821763 -15.4069999999999983 -1.0862187545302062 H
atom -6.7277365598821754 -21.8680000000000021 -7.3662187545302071 H
atom -2.3270905732028515 -2.9819999999999971 -3.2410204844068149 H
atom -2.2818164375374281 -7.3804499999999988 -10.8370242882121293 H
atom -6.7730106955476002 -17.4695500000000017 0.2297850492751081 H
atom -6.7730106955476010 -19.8054500000000004 -6.0502149507248921 H
atom -2.2818164375374268 -5.0445499999999992 -4.5570242882121299 H
atom -4.3191525424815556 -4.7214999999999989 -1.8442931169729591 H
atom -4.7356745906034723 -20.1284999999999989 -8.7629461219640632 H
atom -4.7356745906034714 -17.1464999999999996 -2.4829461219640625 H
atom -4.3191525424815564 -7.7035000000000018 -8.1242931169729591 H
atom -5.8313086737067561 -4.5724000000000018 -3.5780220698754417 H
atom -3.2235184593782713 -20.2776000000000032 -7.0292171690615799 H
atom -3.2235184593782709 -16.9973999999999990 -0.7492171690615801 H
atom -5.8313086737067561 -7.8525999999999989 -9.8580220698754406 H
atom -7.2981906692665302 -6.3864499999999982 -4.1283148265832379 H
atom -1.7566364638184970 -18.4635500000000015 -6.4789244123537832 H
atom -1.7566364638184973 -18.8114500000000007 -0.1989244123537851 H
atom -7.2981906692665302 -6.0385499999999999 -10.4083148265832381 H
atom -7.2076423979356807 -8.2998999999999992 -2.8541624341938685 H
atom -1.8471847351493471 -16.5501000000000005 -7.7530768047431540 H
atom -1.8471847351493478 -20.7249000000000017 -1.4730768047431539 H
atom -7.2076423979356798 -4.1250999999999980 -9.1341624341938683 H
atom -3.8935756672265613 -5.1687999999999992 -10.7280728727429189 H
atom -5.1612514658584674 -19.6812000000000005 0.1208336338058979 H
atom -5.1612514658584665 -17.5938000000000017 -6.1591663661941016 H
atom -3.8935756672265627 -7.2561999999999989 -4.4480728727429204 H
atom -2.5353515972638072 -3.3547499999999975 -10.2297069869023662 H
atom -6.5194755358212202 -21.4952500000000022 -0.3775322520346563 H
atom -6.5194755358212193 -15.7797500000000017 -6.6575322520346560 H
atom -2.5353515972638090 -9.0702499999999979 -3.9497069869023660 H
atom -0.5432896279851034 -2.8080499999999997 -11.5887543543362224 H
atom -8.5115375050999251 -22.0419499999999999 0.9815151153992002 H
atom -8.5115375050999251 -15.2330500000000004 -5.2984848846008008 H
atom -0.5432896279851045 -9.6169500000000010 -5.3087543543362230 H
atom -0.2173158511940415 -4.2990500000000011 -0.9704937417344882 H
atom -8.8375112818909862 -20.5509500000000003 -9.6367454972025346 H
atom -8.8375112818909862 -16.7240499999999983 -3.3567454972025335 H
atom -0.2173158511940421 -8.1259499999999996 -7.2504937417344895 H
atom -1.7385268095523259 -5.9639999999999977 -1.5216299338759085 H
atom -7.3163003235327020 -18.8860000000000028 -9.0856093050611140 H
atom -7.3163003235327020 -18.3889999999999993 -2.8056093050611133 H
atom -1.7385268095523261 -6.4610000000000003 -7.8016299338759083 H
atom -8.2887887576260315 -8.9832749999999990 0.3808372006770498 C
atom -0.7660383754589956 -15.8667250000000006 -10.9880764396140744 C
atom -0.7660383754589986 -21.4082749999999997 -4.7080764396140724 C
atom -8.2887887576260297 -3.4417249999999964 -5.8991627993229487 C
atom -0.4264823579683084 -9.0106100000000016 -0.9329209681539339 C
atom -8.6283447751167195 -15.8393899999999999 -9.6743182707830879 C
atom -8.6283447751167213 -21.4356100000000005 -3.3943182707830881 C
atom -0.4264823579683064 -3.4143899999999991 -7.2129209681539352 C
atom -1.3020841417376283 -10.0915849999999985 -1.1171210025591449 C
atom -7.7527429913473993 -14.7584150000000012 -9.4901182363778798 C
atom -7.7527429913474002 -22.5165850000000027 -3.2101182363778786 C
atom -1.3020841417376281 -2.3334149999999969 -7.3971210025591425 C
atom -0.9824487439397281 -11.1129199999999990 -1.9358854574246676 C
atom -8.0723783891452996 -13.7370800000000006 -8.6713537815123534 C
atom -8.0723783891453014 -23.5379200000000033 -2.3913537815123544 C
atom -0.9824487439397266 -1.3120799999999964 -8.2158854574246671 C
atom -6.7494681450015790 -13.2624450000000031 -3.0019561287036556 C
atom -2.3053589880834493 -11.5875550000000018 -7.6052831102333665 C
atom -2.3053589880834475 -0.8374449999999989 -1.3252831102333653 C
atom -6.7494681450015808 -24.0125550000000025 -9.2819561287036567 C
atom -5.5189171376153228 -13.2723850000000017 -3.5825923161321152 C
atom -3.5359099954697042 -11.5776149999999998 -7.0246469228049078 C
atom -3.5359099954697024 -0.8473849999999977 -0.7446469228049062 C
atom -5.5189171376153245 -24.0026150000000023 -9.8625923161321154 C
atom -4.6233947341532149 -12.2088049999999999 -3.3562163554012439 C
atom -4.4314323989318130 -12.6411949999999997 -7.2510228835357786 C
atom -4.4314323989318147 -24.6338049999999988 -0.9710228835357790 C
atom -4.6233947341532140 -0.2161950000000010 -9.6362163554012437 C
atom -4.9701946133503707 -11.1725600000000007 -2.5768096182525313 C
atom -4.0846325197346554 -13.6774400000000007 -8.0304296206844903 C
atom -4.0846325197346571 -23.5975600000000014 -1.7504296206844918 C
atom -4.9701946133503698 -1.2524399999999973 -8.8568096182525302 C
atom -6.6299444268448564 -10.0418850000000006 -1.1198685707496878 C
atom -2.4248827062401728 -14.8081150000000008 -9.4873706681873369 C
atom -2.4248827062401732 -22.4668850000000013 -3.2073706681873357 C
atom -6.6299444268448537 -2.3831149999999997 -7.3998685707496872 C
atom -8.4218947164823827 -12.2038349999999998 -1.5184172161353240 C
atom -0.6329324166026448 -12.6461650000000017 -9.0888220228016987 C
atom -0.6329324166026468 -24.6288350000000023 -2.8088220228017011 C
atom -8.4218947164823810 -0.2211649999999977 -7.7984172161353218 C
atom -7.8849434674904400 -10.0418850000000006 -0.4837199292663585 C
atom -1.1698836655945883 -14.8081150000000008 -10.1235193096706659 C
atom -1.1698836655945895 -22.4668850000000013 -3.8435193096706652 C
atom -7.8849434674904382 -2.3831149999999997 -6.7637199292663563 C
atom -8.7786549055259329 -11.1352850000000014 -0.6790864421494416 C
atom -0.2761722275590952 -13.7147150000000000 -9.9281527967875807 C
atom -0.2761722275590967 -23.5602850000000004 -3.6481527967875809 C
atom -8.7786549055259311 -1.2897149999999959 -6.9590864421494407 C
atom -6.2605074798149873 -11.1129199999999990 -1.9493732098010570 C
atom -2.7943196532700405 -13.7370800000000006 -8.6578660291359650 C
atom -2.7943196532700423 -23.5379200000000033 -2.3778660291359652 C
atom -6.2605074798149856 -1.3120799999999964 -8.2293732098010555 C
atom -7.1714230894033406 -12.1963800000000013 -2.1623814772381209 C
atom -1.8834040436816875 -12.6536199999999983 -8.4448577616989002 C
atom -1.8834040436816886 -24.6213800000000020 -2.1648577616989018 C
atom -7.1714230894033388 -0.2286199999999969 -8.4423814772381203 C
atom -0.3042421916716596 -13.3519049999999986 -3.6521472384282854 C
atom -8.7505849414133685 -11.4980950000000011 -6.9550920005087367 C
atom -8.7505849414133667 -0.9269050000000001 -0.6750920005087374 C
atom -0.3042421916716613 -23.9230950000000000 -9.9321472384282856 C
atom -0.4355371851013932 -14.3061450000000008 -2.6768082073928730 C
atom -8.6192899479836349 -10.5438550000000006 -7.9304310315441509 C
atom -8.6192899479836331 -1.8811449999999998 -1.6504310315441497 C
atom -0.4355371851013947 -22.9688550000000014 -8.9568082073928750 C
atom -1.3029896244509376 -15.3647550000000006 -2.8351337264830381 C
atom -7.7518375086340905 -9.4852449999999990 -7.7721055124539848 C
atom -7.7518375086340896 -2.9397549999999963 -1.4921055124539835 C
atom -1.3029896244509376 -21.9102449999999997 -9.1151337264830392 C
atom -2.0717444480498552 -15.4740950000000019 -3.9743283378687910 C
atom -6.9830826850351722 -9.3759049999999995 -6.6329109010682314 C
atom -6.9830826850351713 -3.0490950000000008 -0.3529109010682305 C
atom -2.0717444480498561 -21.8009050000000002 -10.2543283378687917 C
atom -1.9467878336132822 -14.5322800000000001 -4.9420204363714602 C
atom -7.1080392994717458 -10.3177200000000013 -5.6652188025655628 C
atom -7.1080392994717441 -2.1072799999999972 0.6147811974344383 C
atom -1.9467878336132833 -22.7427200000000020 -11.2220204363714604 C
atom -1.0720915325572686 -13.4711850000000020 -4.8015851258901439 C
atom -7.9827356005277581 -11.3788149999999995 -5.8056541130468791 C
atom -7.9827356005277563 -1.0461850000000008 0.4743458869531220 C
atom -1.0720915325572702 -23.8038150000000002 -11.0815851258901468 C
atom -4.7085101092042141 -10.2232900000000004 -11.5420524042472508 C
atom -4.3463170238808138 -14.6267100000000010 0.9348131653102296 C
atom -4.3463170238808146 -22.6482899999999994 -5.3451868346897715 C
atom -4.7085101092042123 -2.2017100000000003 -5.2620524042472514 C
atom -3.8310973600082754 -10.3450550000000003 -10.5305389219942533 C
atom -5.2237297730767525 -14.5049450000000011 -0.0767003169427679 C
atom -5.2237297730767533 -22.7700550000000028 -6.3567003169427689 C
atom -3.8310973600082749 -2.0799449999999973 -4.2505389219942531 C
atom -2.9183707849933045 -9.2988699999999973 -10.2614012067094009 C
atom -6.1364563480917234 -15.5511300000000023 -0.3458380322276197 C
atom -6.1364563480917242 -21.7238700000000016 -6.6258380322276196 C
atom -2.9183707849933036 -3.1261299999999981 -3.9814012067094016 C
atom -2.9084104751469124 -8.1731649999999991 -10.9957972435465710 C
atom -6.1464166579381168 -16.6768350000000005 0.3885580046095497 C
atom -6.1464166579381176 -20.5981650000000016 -5.8914419953904504 C
atom -2.9084104751469106 -4.2518349999999980 -4.7157972435465707 C
atom -4.9059053407054662 -5.4893649999999976 -2.1071142196560779 C
atom -4.1489217923795616 -19.3606350000000020 -8.5001250192809454 C
atom -4.1489217923795607 -17.9143650000000001 -2.2201250192809434 C
atom -4.9059053407054671 -6.9356350000000004 -8.3871142196560768 C
atom -5.8023332268808838 -5.3899650000000001 -3.1208069043108426 C
atom -3.2524939062041440 -19.4600350000000013 -7.4864323346261790 C
atom -3.2524939062041436 -17.8149650000000008 -1.2064323346261805 C
atom -5.8023332268808838 -7.0350350000000006 -9.4008069043108424 C
atom -6.6679747008038115 -6.4485749999999964 -3.4189389755532229 C
atom -2.3868524322812159 -18.4014249999999997 -7.1883002633837991 C
atom -2.3868524322812159 -18.8735750000000024 -0.9083002633838004 C
atom -6.6679747008038115 -5.9764250000000017 -9.6989389755532223 C
atom -6.6281334614182379 -7.5867050000000011 -2.6927711229019002 C
atom -2.4266936716667891 -17.2632949999999994 -7.9144681160351222 C
atom -2.4266936716667895 -20.0117050000000027 -1.6344681160351222 C
atom -6.6281334614182379 -4.8382949999999969 -8.9727711229019000 C
atom -5.6701327507378432 -8.9186650000000007 -0.8558612114223626 C
atom -3.3846943823471847 -15.9313350000000007 -9.7513780275146598 C
atom -3.3846943823471856 -21.3436650000000014 -3.4713780275146600 C
atom -5.6701327507378423 -3.5063349999999973 -7.1358612114223625 C
atom -3.8836153573801679 -6.7964749999999992 -0.2664849095800894 C
atom -5.1712117757048599 -18.0535250000000005 -10.3407543293569351 C
atom -5.1712117757048599 -19.2214750000000016 -4.0607543293569339 C
atom -3.8836153573801679 -5.6285249999999980 -6.5464849095800881 C
atom -4.7528787621563300 -9.0528549999999992 0.1998121234819577 C
atom -4.3019483709286961 -15.7971449999999987 -10.8070513624189815 C
atom -4.3019483709286979 -21.4778550000000017 -4.5270513624189794 C
atom -4.7528787621563291 -3.3721449999999984 -6.0801878765180417 C
atom -3.8374357390014349 -7.9843050000000009 0.4872040105384903 C
atom -5.2173913940835934 -16.8656950000000023 -11.0944432494755123 C
atom -5.2173913940835934 -20.4093050000000034 -4.8144432494755121 C
atom -3.8374357390014335 -4.4406949999999972 -5.7927959894615100 C
atom -5.7000136802770225 -7.7507149999999996 -1.6231131009108546 C
atom -3.3548134528080054 -17.0992849999999983 -8.9841261380261681 C
atom -3.3548134528080058 -20.1757150000000003 -2.7041261380261674 C
atom -5.7000136802770234 -4.6742850000000011 -7.9031131009108551 C
atom -4.8063022422415314 -6.6722249999999992 -1.3234985880277701 C
atom -4.2485248908434965 -18.1777750000000005 -9.2837406509092517 C
atom -4.2485248908434965 -19.0972250000000017 -3.0037406509092519 C
atom -4.8063022422415314 -5.7527749999999989 -7.6034985880277697 C
atom -2.9618339552321125 -5.6782250000000012 0.0748040449436998 C
atom -6.0929931778529154 -19.1717750000000002 -10.6820432838807235 C
atom -6.0929931778529154 -18.1032249999999983 -4.4020432838807215 C
atom -2.9618339552321125 -6.7467749999999995 -6.2051959550562987 C
atom -3.1691894965797589 -4.9103599999999998 -11.3490137336279577 C
atom -5.8856376365052689 -19.9396400000000007 0.7417744946909350 C
atom -5.8856376365052681 -17.3353600000000014 -5.5382255053090645 C
atom -3.1691894965797602 -7.5146399999999973 -5.0690137336279575 C
atom -2.2881548165305863 -3.8964799999999986 -11.0052173556793846 C
atom -6.7666723165544420 -20.9535200000000010 0.3979781167423619 C
atom -6.7666723165544411 -16.3214800000000011 -5.8820218832576368 C
atom -2.2881548165305881 -8.5285199999999985 -4.7252173556793853 C
atom -1.2070084568402339 -3.6206450000000014 -11.7910169905503057 C
atom -7.8478186762447937 -21.2293550000000018 1.1837777516132835 C
atom -7.8478186762447928 -16.0456450000000004 -5.0962222483867166 C
atom -1.2070084568402357 -8.8043549999999957 -5.5110169905503064 C
atom -0.9878816402195775 -4.3462650000000016 -0.3659698009680294 C
atom -8.0669454928654503 -20.5037349999999989 -10.2412694379689935 C
atom -8.0669454928654503 -16.7712650000000032 -3.9612694379689919 C
atom -0.9878816402195781 -8.0787349999999964 -6.6459698009680306 C
atom -1.8743492165485993 -5.3750550000000015 -0.7161305224599632 C
atom -7.1804779165364279 -19.4749450000000017 -9.8911087164770599 C
atom -7.1804779165364270 -17.8000550000000004 -3.6111087164770588 C
atom -1.8743492165486006 -7.0499449999999966 -6.9961305224599633 C
