#=======================================================
# FHI-aims file: pahs_geometry_fix/PYRCEN.in
# Created using the Atomic Simulation Environment (ASE)
# Tue May 25 14:20:53 2021
#=======================================================
lattice_vector 0.0000000000000008 5.0300000000000002 0.0000000000000003 
lattice_vector -0.0000000000000000 -0.0000000000000000 7.3200000000000003 
lattice_vector 12.4858241488673993 -0.0000000000000000 -1.3630096564440259 
atom 1.1836561293126300 4.1437140000000001 4.1119946845691064 H
atom 11.3021680195547702 0.8862860000000000 1.8449956589868672 H
atom 5.0592559451210706 1.6287140000000000 6.1865004872088800 H
atom 7.4265682037463296 3.4012860000000003 -0.2295101436529065 H
atom 2.6594805437087561 0.8379980000000000 5.1469749431774225 H
atom 9.8263436051586428 4.1920020000000005 0.8100154003785514 H
atom 3.5834315307249431 3.3533333333333335 5.1515202286005639 H
atom 8.9023926181424553 1.6770019999999999 0.8054701149554093 H
atom 0.7741210972297791 3.0169940000000000 1.9921774013004707 H
atom 11.7117030516376204 2.0130060000000003 3.9648129422555045 H
atom 5.4687909772039207 0.5019940000000001 0.9863177704775165 H
atom 7.0170331716634795 4.5280060000000004 4.9706725730784571 H
atom 1.7979586774369054 1.7876620000000001 2.7170866094720605 H
atom 10.6878654714304933 3.2423379999999993 3.2399037340839145 H
atom 4.4449533969967936 4.3026620000000007 0.2614085623059271 H
atom 8.0408707518706048 0.7273380000000000 5.6955817812500467 H
atom 2.1338273470414388 3.0240359999999993 0.0781616497137161 H
atom 10.3519968018259583 2.0059640000000001 5.8788286938422578 H
atom 4.1090847273922613 0.5090360000000000 2.9003335220642712 H
atom 8.3767394214751363 4.5209640000000002 3.0566568214917034 H
atom 3.1626592569081127 1.8017460000000003 0.8061856540227283 H
atom 9.3231648919592871 3.2282540000000002 5.1508046895332464 H
atom 3.0802528175255883 4.3167460000000002 2.1723095177552589 H
atom 9.4055713313418110 0.7132540000000001 3.7846808258007161 H
atom 1.5332592054809167 0.9909100000000001 6.9476624141886729 C
atom 10.9525649433864825 4.0390900000000007 -0.9906720706326995 C
atom 4.7096528689527837 3.5059100000000001 3.3508327575893140 C
atom 7.7761712799146165 1.5240899999999999 2.6061575859666601 C
atom 1.2236107665890052 2.0512340000000000 1.8464850536684858 C
atom 11.2622133822783947 2.9787659999999998 4.1105052898874881 C
atom 5.0193013078446960 4.5662340000000006 1.1320101181095017 C
atom 7.4665228410227034 0.4637660000000001 4.8249802254464722 C
atom 2.1500589184349659 2.0587789999999999 0.5507257371603389 C
atom 10.3357652304324326 2.9712210000000003 5.4062646063956352 C
atom 4.0928531559987329 4.5737790000000000 2.4277694346176482 C
atom 8.3929709928686655 0.4562210000000000 3.5292209089383251 C
atom 1.8017044246815659 0.4828800000000000 5.6885977065751279 C
atom 10.6841197241858339 4.5471200000000005 0.2683926369808471 C
atom 4.4412076497521342 2.9978799999999999 4.6098974652028595 C
atom 8.0446164991152660 2.0321200000000004 1.3470928783531138 C
atom 0.9501712177288099 4.5169400000000000 5.0934749651446101 C
atom 11.5356529311385891 0.5130600000000000 0.8635153784113638 C
atom 5.2927408567048904 2.0019400000000003 5.2050202066333773 C
atom 7.1930832921625090 3.0280600000000000 0.7519701369225968 C
atom 0.1398412304673150 0.9909100000000001 1.5761022918478271 C
atom 12.3459829184000842 4.0390900000000007 4.3808880517081477 C
atom 6.1030708439663846 3.5059100000000001 1.4023928799301606 C
atom 6.3827533049010148 1.5240899999999999 4.5545974636258135 C
atom 0.4007949551786436 0.4567240000000001 0.2856473900281468 C
atom 12.0850291936887544 4.5732759999999999 5.6713429535278275 C
atom 5.8421171192550556 2.9717240000000000 2.6928477817498409 C
atom 6.6437070296123437 2.0582760000000002 3.2641425618061337 C
