#=======================================================
# FHI-aims file: pahs_geometry_fix/QUATER10.in
# Created using the Atomic Simulation Environment (ASE)
# Tue May 25 14:20:53 2021
#=======================================================
lattice_vector -0.0000000000000017 -10.6300000000000008 -0.0000000000000007 
lattice_vector -10.9597911901039886 0.0000000000000000 2.0233640476491068 
lattice_vector 0.0000000000000000 0.0000000000000000 -19.2349999999999994 
atom -7.7156929978332078 -0.4677199999999992 -8.2122867104550270 H
atom -3.2440981922707826 -10.1622800000000009 -8.9993492418958638 H
atom -8.7239937873227760 -5.7827200000000012 -7.9876672180713113 H
atom -2.2357974027812126 -4.8472799999999987 -9.2239687342795804 H
atom -6.7841107466743704 -9.3331400000000002 -9.6537826545052017 H
atom -4.1756804434296200 -1.2968600000000001 -7.5578532978456909 H
atom -9.6555760384816143 -4.0181400000000007 -6.5461712740211375 H
atom -1.3042151516223768 -6.6118599999999992 -10.6654646783297551 H
atom -7.1129044823774903 -9.3862900000000007 -11.9589867330757293 H
atom -3.8468867077265001 -1.2437100000000001 -5.2526492192751624 H
atom -9.3267823027784953 -4.0712900000000003 -4.2409671954506090 H
atom -1.6330088873254969 -6.5587100000000005 -12.9706687569002810 H
atom -7.5184167564113373 -9.3862900000000007 -13.9230322633127130 H
atom -3.4413744336926522 -1.2437100000000001 -3.2886036890381800 H
atom -8.9212700287446474 -4.0712900000000003 -2.2769216652136266 H
atom -2.0385211613593448 -6.5587100000000005 -14.9347142871372665 H
atom -7.9239290304451853 -9.3862900000000007 -16.2140727935496969 H
atom -3.0358621596588042 -1.2437100000000001 -0.9975631588011947 H
atom -8.5157577547107994 -4.0712900000000003 0.0141188650233563 H
atom -2.4440334353931914 -6.5587100000000005 -17.2257548173742485 H
atom -8.1979238101977856 -9.3650300000000009 1.0326013076415310 H
atom -2.7618673799062043 -1.2649699999999988 -18.2442372599924241 H
atom -8.2417629749582009 -4.0500300000000005 -17.2325552361678724 H
atom -2.7180282151457913 -6.5799700000000003 0.0209192838169800 H
atom -8.6034360842316335 -9.3331400000000002 -1.2392042225954498 H
atom -2.3563551058723564 -1.2968600000000001 -15.9724317297554421 H
atom -7.8362507009243529 -4.0181400000000007 -14.9607497059308887 H
atom -3.1235404891796383 -6.6118599999999992 -2.2508862464200030 H
atom -8.8993504463644406 -9.3756599999999999 -3.2234833933089257 H
atom -2.0604407437395493 -1.2543400000000000 -13.9881525590419677 H
atom -7.5403363387915441 -4.0606600000000004 -12.9764705352174143 H
atom -3.4194548513124463 -6.5693400000000004 -4.2351654171334792 H
atom -9.2391039732576630 -9.4394400000000012 -5.6228391078318039 H
atom -1.7206872168463254 -1.1905599999999987 -11.5887968445190896 H
atom -7.2005828118983217 -4.1244400000000008 -10.5771148206945362 H
atom -3.7592083782056687 -6.5055599999999991 -6.6345211316563564 H
atom -10.4994799601196203 -0.4783500000000004 -6.6404272423521542 H
atom -0.4603112299843696 -10.1516500000000001 -10.5712087099987357 H
atom -5.9402068250363618 -5.7933499999999993 -9.5595266861741823 H
atom -5.0195843650676268 -4.8366499999999988 -7.6521092661767058 H
atom -0.9535018335390458 -2.4767899999999989 -8.3835423278545278 H
atom -10.0062893565649436 -8.1532100000000014 -8.8280936244963648 H
atom -4.5263937615129475 -7.7917899999999989 -9.8397756483209182 H
atom -6.4333974285910411 -2.8382099999999992 -7.3718603040299735 H
atom -1.9837222054088219 -4.2413700000000008 -7.0392461073755124 H
atom -8.9760689846951678 -6.3886300000000000 -10.1723898449753811 H
atom -3.4961733896431735 -9.5563700000000011 -11.1840718687999345 H
atom -7.4636178004608169 -1.0736299999999988 -6.0275640835509581 H
atom -1.5672501401848713 -4.1563300000000005 -4.6925239411861783 H
atom -9.3925410499191191 -6.4736700000000003 -12.5191120111647134 H
atom -3.9126454548671252 -9.4713300000000000 -13.5307940349892686 H
atom -7.0471457352368647 -1.1586699999999999 -3.6808419173616245 H
atom -1.2165368221015420 -4.1669600000000004 -2.6606565907109498 H
atom -9.7432543680024466 -6.4630400000000003 -14.5509793616399428 H
atom -4.2633587729504532 -9.4819600000000008 -15.5626613854644962 H
atom -6.6964324171535372 -1.1480399999999999 -1.6489745668863962 H
atom -0.8548637128281114 -4.1882199999999994 -0.3422876042833705 H
atom -10.1049274772758775 -6.4417800000000005 -16.8693483480675219 H
atom -4.6250318822238849 -9.5032200000000007 -17.8810303718920771 H
atom -6.3347593078801063 -1.1267799999999999 0.6693944195411856 H
atom -0.5808689330755126 -4.1350700000000007 -17.6659017054745959 H
atom -10.3789222570284778 -6.4949300000000001 0.4542657531237067 H
atom -4.8990266619764835 -9.4500700000000002 -0.5574162707008491 H
atom -6.0607645281275051 -1.1799299999999999 -16.6542196816500407 H
atom -0.2191958238020794 -4.1350700000000007 -15.4052377190470171 H
atom -10.7405953663019105 -6.4949300000000001 -1.8063982333038746 H
atom -5.2606997712499162 -9.4500700000000002 -2.8180802571284262 H
atom -5.6990914188540742 -1.1799299999999999 -14.3935556952224637 H
atom -10.8940324429633648 -4.1563300000000005 -11.3378661366367872 H
atom -0.0657587471406263 -6.4736700000000003 -5.8737698157141045 H
atom -5.5456543421926199 -9.4713300000000000 -4.8620877918895511 H
atom -5.4141368479113705 -1.1586699999999999 -12.3495481604613406 H
atom -10.4775603777394135 -4.1457000000000006 -9.0296139704474552 H
atom -0.4822308123645770 -6.4842999999999993 -8.1820219819034374 H
atom -5.9621264074165703 -9.4607000000000010 -7.1703399580788849 H
atom -4.9976647826874174 -1.1692999999999987 -10.0412959942720086 H
atom -9.1623854349269340 -2.4023799999999986 -7.9452026561653470 H
atom -1.7974057551770559 -8.2276200000000017 -9.2664332961855465 H
atom -7.2773013502290489 -7.7173800000000004 -8.2547512723609930 H
atom -3.6824898398749402 -2.9126200000000004 -8.9568846799898996 H
atom -7.8979543253246369 -0.4523064999999998 -9.2588757663426229 C
atom -3.0618368647793530 -10.1776935000000002 -7.9527601860082697 C
atom -8.5417324598313460 -5.7673064999999992 -6.9410781621837137 C
atom -2.4180587302726426 -4.8626935000000007 -10.2705577901671763 C
atom -8.7683809416426985 -10.0979685000000003 0.6545418563216673 C
atom -2.1914102484612910 -0.5320314999999993 -17.8661778086725604 C
atom -7.6713058435132888 -4.7829685000000000 -16.8544957848480088 C
atom -3.2884853465907034 -5.8470314999999999 -0.3571401675028837 C
atom -8.9755209951356640 -10.1006260000000019 -0.7154109131777624 C
atom -1.9842701949683277 -0.5293739999999983 -16.4962250391731295 C
atom -7.4641657900203215 -4.7856260000000006 -15.4845430153485761 C
atom -3.4956254000836675 -5.8443740000000002 -1.7270929370023158 C
atom -9.7178276524414056 -0.4571962999999988 -1.3346886662304882 C
atom -1.2419635376625842 -10.1728037000000011 -15.8769472861204033 C
atom -6.7218591327145791 -5.7721963000000001 -14.8652652622958499 C
atom -4.2379320573894113 -4.8578037000000007 -2.3463706900550418 C
atom -9.9343931263578593 -0.4526253999999983 -2.7898435426489412 C
atom -1.0253980637461306 -10.1773746000000020 -14.4217924097019505 C
atom -6.5052936587981245 -5.7676254000000009 -13.4101103858773971 C
atom -4.4544975313058659 -4.8623746000000008 -3.8015255664734950 C
atom -9.4133646531803166 -10.1146576000000010 -3.6281205694741816 C
atom -1.5464265369236716 -0.5153423999999996 -13.5835153828767101 C
atom -7.0263221319756681 -4.7996576000000006 -12.5718333590521585 C
atom -3.9334690581283223 -5.8303424000000010 -4.6398025932987368 C
atom -9.6249982210612259 -10.1229490000000020 -5.0093618097140773 C
atom -1.3347929690427631 -0.5070509999999985 -12.2022741426368135 C
atom -6.8146885640947605 -4.8079490000000007 -11.1905921188122601 C
atom -4.1451026260092307 -5.8220510000000010 -6.0210438335386307 C
atom -10.3641265389218376 -0.4824957000000005 -5.5855628883406219 C
atom -0.5956646511821523 -10.1475042999999996 -11.6260730640102690 C
atom -6.0755602462341463 -5.7974957000000007 -10.6143910401857191 C
atom -4.8842309438698432 -4.8325043000000001 -6.5972449121651753 C
atom -10.9474066260591716 -1.4927708999999996 -4.7833036037247370 C
atom -0.0123845640448186 -9.1372291000000008 -12.4283323486261565 C
atom -5.4922801590968140 -6.8077708999999995 -11.4166503248016031 C
atom -5.4675110310071782 -3.8222290999999986 -5.7949856275492904 C
atom -0.7966672216086597 -2.5083610999999992 -7.3843859173763855 C
atom -10.1631239684953307 -8.1216389000000007 -9.8272500349745062 C
atom -4.6832283734433346 -7.8233611000000005 -10.8389320587990596 C
atom -6.2765628166606531 -2.8066389000000003 -6.3727038935518321 C
atom -1.3628500344894299 -3.4815375999999993 -6.6052874806748338 C
atom -9.5969411556145587 -7.1484624000000005 -10.6063484716760588 C
atom -4.1170455605625653 -8.7965376000000006 -11.6180304955006122 C
atom -6.8427456295414251 -1.8334623999999997 -5.5936054568502804 C
atom -7.3283739771749339 -10.1117875000000019 -10.0493730458989479 C
atom -3.6314172129290552 -0.5182124999999984 -7.1622629064519421 C
atom -9.1113128079810508 -4.7967875000000006 -6.1505808826273887 C
atom -1.8484783821229411 -5.8332125000000010 -11.0610550697234995 C
atom -1.1460653647491752 -3.4742028999999999 -5.2232660715373305 C
atom -9.8137258253548154 -7.1557971000000009 -11.9883698808135595 C
atom -4.3338302303028211 -8.7892028999999994 -13.0000519046381129 C
atom -6.6259609598011684 -1.8407971000000005 -4.2115840477127788 C
atom -0.3727424983754357 -2.5155895000000004 -4.6033668887394521 C
atom -10.5870486917285529 -8.1144105000000000 -12.6082690636114396 C
atom -5.1071530966765577 -7.8305895000000012 -13.6199510874359930 C
atom -5.8526380934274309 -2.7994104999999987 -3.5916848649149005 C
atom -0.1384221627310129 -2.5116564000000006 -3.1566833120781927 C
atom -10.8213690273729757 -8.1183435999999993 -14.0549526402727007 C
atom -5.3414734323209805 -7.8266564000000010 -15.0666346640972542 C
atom -5.6183177577830072 -2.8033435999999998 -2.1450012882536393 C
atom -0.6726023853366827 -3.4611280000000004 -2.3071301483957734 C
atom -10.2871888047673075 -7.1688719999999995 -14.9045058039551179 C
atom -4.8072932097153132 -8.7761279999999999 -15.9161878277796713 C
atom -6.1524979803886755 -1.8538720000000002 -1.2954481245712202 C
atom -0.4665583109627261 -3.4726083999999999 -0.9387061924915757 C
atom -10.4932328791412637 -7.1573915999999995 -16.2729297598593163 C
atom -5.0133372840892694 -8.7876083999999999 -17.2846117836838680 C
atom -5.9464539060147210 -1.8423916000000005 0.0729758313329759 C
atom -10.6420668435028745 -2.4996445000000000 1.7050342239077600 C
atom -0.3177243466011155 -8.1303555000000003 -18.9166701762586520 C
atom -5.7976199416531111 -7.8146445000000000 -17.9049881524341004 C
atom -5.1621712484508802 -2.8153555000000003 0.6933522000832087 C
atom -10.4089520848893624 -2.5081484999999999 -16.0820978793857350 C
atom -0.5508391052146274 -8.1218515000000000 -1.1295380729651545 C
atom -6.0307347002666214 -7.8231484999999994 -0.1178560491406033 C
atom -4.9290564898373690 -2.8068515000000005 -17.0937799032102902 C
atom -0.0004383916476039 -3.4625098999999988 -17.2729490654380911 C
atom -10.9593527984563845 -7.1674900999999993 0.0613131130872028 C
atom -5.4794572034043911 -8.7775099000000001 -0.9503689107373527 C
atom -5.4803339866995984 -1.8524901000000005 -16.2612670416135394 C
atom -10.7425681287161279 -3.4534743999999984 -13.8840752277752983 C
atom -0.2172230613878617 -7.1765255999999997 -3.3275607245755934 C
atom -5.6971186564398559 -8.7684744000000006 -2.3158787007510400 C
atom -5.2626725336641327 -1.8615255999999996 -14.8957572515998518 C
atom -9.9729715913470258 -2.4946484000000000 -13.2565635012012191 C
atom -0.9868195987569633 -8.1353515999999999 -3.9550724511496731 C
atom -6.4667151938089580 -7.8096484000000004 -2.9433904273251197 C
atom -4.4930759962950315 -2.8203516000000004 -14.2682455250257725 C
atom -7.5574336130481079 -10.1174213999999996 -11.4323982373030812 C
atom -3.4023575770558816 -0.5125786000000004 -5.7792377150478114 C
atom -8.8822531721078768 -4.8024214000000001 -4.7675556912232580 C
atom -2.0775380179961136 -5.8275785999999998 -12.4440802611276347 C
atom -9.7516934072188253 -2.4804042000000002 -11.8053562713232534 C
atom -1.2080977828851645 -8.1495958000000002 -5.4062796810276401 C
atom -6.6879933779371576 -7.7954042000000001 -4.3945976572030867 C
atom -4.2717978121668319 -2.8345958000000002 -12.8170382951478086 C
atom -10.3032996978167599 -3.4409309999999991 -10.9741291588050753 C
atom -0.6564914922872296 -7.1890690000000008 -6.2375067935458164 C
atom -6.1363870873392239 -8.7559310000000004 -5.2258247697212630 C
atom -4.8234041027647647 -1.8740690000000002 -11.9858111826296270 C
atom -10.0867342239003062 -3.4164819999999994 -9.5872585323866204 C
atom -0.8730569662036831 -7.2135180000000005 -7.6243774199642731 C
atom -6.3529525612556803 -8.7314820000000015 -6.6126953961397188 C
atom -4.6068386288483101 -1.8985179999999988 -10.5989405562111738 C
atom -9.3032187517197702 -2.4588253000000004 -9.0209832281530549 C
atom -1.6565724383842193 -8.1711746999999999 -8.1906527241978377 C
atom -7.1364680334362136 -7.7738253000000004 -7.1789707003732843 C
atom -3.8233231566677768 -2.8561747000000000 -10.0326652519776083 C
atom -8.7096364608637398 -1.4588612000000003 -9.8312996749737316 C
atom -2.2501547292402515 -9.1711387999999996 -7.3803362773771628 C
atom -7.7300503242922449 -6.7738612000000007 -6.3686542535526094 C
atom -3.2297408658117450 -3.8561388000000001 -10.8429816987982832 C
atom -8.9311338408157415 -1.4646013999999992 -11.2286084375707436 C
atom -2.0286573492882503 -9.1653986000000014 -5.9830275147801517 C
atom -7.5085529443402441 -6.7796014000000007 -4.9713454909555974 C
atom -3.4512382457637463 -3.8503986000000001 -12.2402904613952970 C
atom -9.3838828148789375 -1.4829912999999992 -14.0808613187623575 C
atom -1.5759083752250538 -9.1470087000000007 -3.1307746335885351 C
atom -7.0558039702770472 -6.7979913000000005 -2.1190926097639817 C
atom -3.9039872198269427 -3.8320086999999998 -15.0925433425869109 C
atom -9.6100929050426824 -1.4795896999999993 -15.4930727348188793 C
atom -1.3496982850613075 -9.1504103000000008 -1.7185632175320120 C
atom -6.8295938801133014 -6.7945896999999995 -0.7068811937074564 C
atom -4.1301973099906890 -3.8354102999999986 -16.5047547586434327 C
atom -10.0611979104273619 -1.4924519999999999 0.8789839793823592 C
atom -0.8985932796766276 -9.1375480000000007 -18.0906199317332508 C
atom -6.3784888747286219 -6.8074520000000014 -17.0789379079086956 C
atom -4.5813023153753685 -3.8225479999999994 -0.1326980444421965 C
atom -10.2885039797101197 -1.4971291999999998 -0.5349486002694011 C
atom -0.6712872103938698 -9.1328708000000010 -16.6766873520814940 C
atom -6.1511828054458650 -6.8121292000000002 -15.6650053282569388 C
atom -4.8086083846581253 -3.8178708000000006 -1.5466306240939547 C
atom -8.3455521975284839 -0.4456095999999984 -12.0443724286366329 C
atom -2.6142389925755061 -10.1843904000000016 -5.1672635237142597 C
atom -8.0941345876274990 -5.7606095999999996 -4.1555814998897063 C
atom -2.8656566024764891 -4.8693904000000012 -13.0560544524611881 C
atom -10.7299643688475079 -1.4855425000000007 -3.3760133964300945 C
atom -0.2298268212564814 -9.1444574999999997 -13.8356225559207999 C
atom -5.7097224163084750 -6.8005424999999997 -12.8239405320962447 C
atom -5.2500687737955136 -3.8294574999999997 -4.3876954202546479 C
atom -8.5986137761079853 -0.4431647000000001 -13.4875960527764178 C
atom -2.3611774139960047 -10.1868353000000003 -3.7240398995744743 C
atom -7.8410730090479985 -5.7581647000000009 -2.7123578757499205 C
atom -3.1187181810559923 -4.8718352999999990 -14.4992780766009712 C
atom -8.0845995692921093 -10.0906338000000009 -14.3207311266111610 C
atom -2.8751916208118806 -0.5393661999999989 -2.8909048257397307 C
atom -8.3550872158638754 -4.7756338000000005 -1.8792228019151798 C
atom -2.6047039742401146 -5.8543662000000003 -15.3324131504357126 C
atom -8.3003978578252564 -10.0940354000000010 -15.6813914385129483 C
atom -2.6593933322787331 -0.5359645999999991 -1.5302445138379432 C
atom -8.1392889273307283 -4.7790353999999988 -0.5185624900133899 C
atom -2.8205022627732621 -5.8509646000000011 -16.6930734623375017 C
atom -9.0471980295189418 -0.4495426999999994 -16.3171511123061386 C
atom -1.9125931605850481 -10.1804573000000005 -0.8944848400447535 C
atom -7.3924887556370420 -5.7645426999999998 0.1171971837797980 C
atom -3.5673024344669475 -4.8654573000000001 -17.3288331361306902 C
atom -9.2787784173658387 -0.4602789999999989 1.4796999200206895 C
atom -1.6810127727381510 -10.1697210000000009 -18.6913358723715817 C
atom -7.1609083677901442 -5.7752789999999994 -17.6796538485470265 C
atom -3.7988828223138458 -4.8547210000000005 0.4680178961961337 C
