#=======================================================
# FHI-aims file: pahs_geometry_fix/OBOHUL.in
# Created using the Atomic Simulation Environment (ASE)
# Tue May 25 14:20:53 2021
#=======================================================
lattice_vector 8.7299737408473739 0.0000000000000000 -0.7760578870904656 
lattice_vector -4.1635511366231919 7.8087086089366018 -2.5164641530216816 
lattice_vector 0.0000000000000000 0.0000000000000000 13.1212000000000000 
atom 7.2447704388462046 1.1652154986255197 3.0807180605021114 H
atom -2.6783478346220231 6.6434931103110824 6.7479598993857417 H
atom 6.6157382842631014 0.7305827774521085 0.9160683869264182 H
atom -2.0493156800389190 7.0781258314844937 8.9126095729614345 H
atom 5.0722319031864247 1.1517845198181487 12.1399525080940567 H
atom -0.5058092989622428 6.6569240891184531 -2.3112745482062036 H
atom 3.1575708520318706 2.1466139965966717 11.3020921535761580 H
atom 1.4088517521923118 5.6620946123399296 -1.4734141936883054 H
atom 1.8102563442795250 3.4573057366066804 -0.4365005706554511 H
atom 2.7562535596820652 4.3514028723299214 10.2651707699644330 H
atom 0.6037441665813799 5.2023959365318317 3.9579180508170637 H
atom 3.9626784376428019 2.6063126724047696 5.8707599090707880 H
atom 7.1214137367370238 2.2548426979165335 5.0467693381481835 H
atom -2.5549911325128423 5.5538659110200683 4.7819086217396700 H
atom 5.7762476102098113 1.6504486515848400 5.6684650080263408 H
atom -1.2098250059856290 6.1582599573517616 4.1602129518615119 H
atom 5.9066038645499717 3.2264803101265147 5.4229074555563859 H
atom -1.3401812603257899 4.5822282988100875 4.4057705043314659 H
atom 1.5520540005160199 6.5600961023676385 1.4515701322590056 H
atom 3.0143686037081618 1.2486125065689626 8.3771078276288478 H
atom -0.4011735220328391 7.5963117347735265 0.7445979231366934 H
atom 4.9675961262570203 0.2123968741630756 9.0840800367511605 H
atom 6.4292473085284110 4.0396011375750831 0.0213177589292196 H
atom -1.8629120040416378 3.7691074713615191 9.8073679615375049 H
atom -0.3529195509187810 3.0030731568248381 1.4793588507558559 H
atom 4.9193421551429637 4.8056354521117628 8.3493191091319972 H
atom 4.7872166007524193 5.4571940984414340 0.9667919367082167 H
atom -0.2207939965282384 2.3515145104951682 8.8618860231796361 H
atom 3.9488583611391519 6.7238447218970396 0.4629984191985491 H
atom 0.6175642430850303 1.0848638870395622 9.3656795406893050 H
atom -3.5743636908680907 6.9221078334779405 2.2712832546986128 H
atom 8.1407862950922727 0.8866007754586618 7.5573947051892398 H
atom 0.5124662882994281 0.6114999711658253 2.2433357361218329 H
atom 4.0539563159247543 7.1972086377707765 7.5853422237660197 H
atom 2.0318706267583515 0.3761454936924761 1.7996646228621718 H
atom 2.5345519774658309 7.4325631152441254 8.0290133370256811 H
atom 1.6891387522029260 0.7368297443392577 3.3206803330286685 H
atom 2.8772838520212565 7.0718788645973438 6.5079976268591837 H
atom 5.0638671269368638 4.9342448829009493 -1.4716688844921484 H
atom -0.4974445227126815 2.8744637260356525 11.3003468443800017 H
atom -2.8528066753163035 5.9314950593482427 -1.6469705530481102 H
atom 7.4192292795404846 1.8772135495883591 11.4756485129359636 H
atom 4.3963406949613537 6.3086556851598798 -1.9476887490609314 H
atom 0.1700819092628282 1.5000529237767211 11.7763667089487836 H
atom 5.5774295110115721 2.1701962965956603 3.6836759507540164 C
atom -1.0110069067873904 5.6385123123409420 6.1450020091338367 C
atom 6.4046168777144636 1.4857629870223672 2.7746170166449264 C
atom -1.8381942734902812 6.3229456219142346 7.0540609432429262 C
atom 6.0576736754413565 1.2601693953101887 1.4732060161428047 C
atom -1.4912510712171738 6.5485392136264133 8.3554719437450480 C
atom 4.8665556048990846 1.8168522320412790 0.9590703726274362 C
atom -0.3001330006749015 5.9918563768953224 8.8696075872604165 C
atom 4.0242705805332433 2.5556341535327713 1.8390150361910211 C
atom 0.5421520236909398 5.2530744554038309 7.9896629236968320 C
atom 4.5180823971768538 1.6673154621801431 -0.4070593274804112 C
atom 0.0483402070473282 6.1413931467564584 10.2357372873682628 C
atom 3.3891834041001649 2.2602307068566994 -0.9048237173312251 C
atom 1.1772392001240171 5.5484779020799024 10.7335016772190777 C
atom 2.5769146082547434 3.0322777270222612 -0.0705478357018973 C
atom 1.9895079959694384 4.7764308819143402 9.8992257955897500 C
atom 2.8610075732227402 3.1954797369490358 1.2830010587197342 C
atom 1.7054150310014411 4.6132288719875651 8.5456769011681182 C
atom 2.0095733594817533 3.9890787928752633 2.1323421907887985 C
atom 2.5568492447424287 3.8196298160613384 7.6963357690990533 C
atom 2.2159444961195343 4.0108650898941960 3.4981024103612195 C
atom 2.3504781081046477 3.7978435190424058 6.3305755495266336 C
atom 1.2667041701233834 4.6543807663566614 4.3611016626113939 C
atom 3.2997184341007979 3.1543278425799399 5.4675762972764588 C
atom 3.3164849676630901 3.2746600422436534 4.1065968640650672 C
atom 1.2499376365610910 4.5340485666929489 5.7220810958227863 C
atom 4.3347698982596725 2.6578501492237514 3.2348043721687150 C
atom 0.2316527059645081 5.1508584597128513 6.5938735877191377 C
atom 6.1456481784183890 2.3405042313565678 5.0787516216801549 C
atom -1.5792255741942065 5.4682043775800340 4.7499263382076986 C
atom 0.8063752859811438 4.6714037511241440 1.5647000909415121 C
atom 3.7600473182430374 3.1373048578124587 8.2639778689463412 C
atom 0.7669167593833514 6.0403484573568189 1.3255028259852968 C
atom 3.7995058448408310 1.7683601515797829 8.5031751339025554 C
atom -0.4035920606154840 6.6598913983898491 0.9049137351381424 C
atom 4.9700146648396659 1.1488172105467529 8.9237642247497106 C
atom -1.5804533224928436 5.9400846388180737 0.7127177892388437 C
atom 6.1468759267170245 1.8686239701185290 9.1159601706490090 C
atom -1.5203154795295220 4.5639559206651761 0.9335754574937548 C
atom 6.0867380837537031 3.2447526882714262 8.8951025023940975 C
atom -0.3577334724115473 3.9433978475129838 1.3446162928312795 C
atom 4.9241560766357289 3.8653107614236180 8.4840616670565741 C
atom -2.9174253604020399 6.5839907507109849 0.3275743398893124 C
atom 7.4838479646262224 1.2247178582256166 9.5011036199985401 C
atom 4.8378688774876943 6.4054836719106945 0.7255029253998589 C
atom -0.2714462732635124 1.4032249370259073 9.1031750344879931 C
atom 1.3819889342864979 0.2568284261479248 2.5233570742322469 C
atom 3.1844336699376838 7.5518801827886772 7.3053208856556058 C
atom 5.2351112551443260 5.8752723573638992 -1.6847789660885955 C
atom -0.6686886509201447 1.9334362515727026 11.5134569259764472 C
