#=======================================================
# FHI-aims file: pahs_geometry_fix/KAGGAC.in
# Created using the Atomic Simulation Environment (ASE)
# Tue May 25 14:20:52 2021
#=======================================================
lattice_vector 9.0002435964833616 0.0000000000000000 0.0906404653576232 
lattice_vector 1.4201221755179727 11.8331164844993353 5.1672727110993657 
lattice_vector 0.0000000000000000 0.0000000000000000 14.0601000000000003 
atom 3.2391721395334763 7.1318193052077499 6.4283802582062872 H
atom 7.1811936324678580 4.7012971792915854 12.8896329182507028 H
atom 5.0574056999862673 6.6158954264835792 7.7559788712155626 H
atom 5.3629600720150670 5.2172210580157570 11.5620343052414274 H
atom 5.3424904081769595 7.6039606529392723 9.7863503512014738 H
atom 5.0778753638243748 4.2291558315600621 9.5316628252555144 H
atom 4.5940540088013098 9.2795299471443791 11.4800265079979162 H
atom 5.8263117632000236 2.5535865373549567 7.8379866684590738 H
atom 3.1350760349013895 10.9065834637630363 12.1288744682413459 H
atom 7.2852897370999452 0.9265330207362978 7.1891387082156415 H
atom 1.4714880835814130 11.6236703227236973 10.6907803580684462 H
atom 8.9488776884199215 0.2094461617756382 8.6272328183885421 H
atom 7.7200088665919351 0.8366013354541030 1.0213385186464889 H
atom 2.7003569054093997 10.9965151490452318 18.2966746578104988 H
atom 6.2834206990661503 1.5028057935314156 13.3914810738686239 H
atom 4.1369450729351849 10.3303106909679201 5.9265321025883653 H
atom 6.3508355442153368 11.8212833680148357 17.5199879534042431 H
atom 4.0695302277859975 0.0118331164844993 1.7980252230527451 H
atom 5.6072306368208835 9.4499268245211692 17.2053449983666944 H
atom 4.8131351351804508 2.3831896599781661 2.1126681780902965 H
atom 5.9256415871932413 7.2359507302713437 3.5636266503217109 H
atom 4.4947241848080930 4.5971657542279916 15.7543865261352778 H
atom 7.6766259625623210 6.5271470528498332 4.9007572498598142 H
atom 2.7437398094390137 5.3059694316495021 14.4172559265971749 H
atom 2.3649234422455683 4.1593404443015158 4.4896330064200622 H
atom 8.0554423297557651 7.6737760401978186 14.8283801700369278 H
atom 0.4642397801222862 3.8457628574622840 7.9740975932469009 H
atom 9.9561259918790483 7.9873536270370522 11.3439155832100873 H
atom 2.5317380923414867 6.1567705068850040 3.3224199522842386 H
atom 7.8886276796598471 5.6763459776143312 15.9955932241727510 H
atom 2.5076626352836930 7.4560466968830310 4.1987018966557965 H
atom 7.9127031367176413 4.3770697876163043 15.1193112798011935 H
atom 1.2246428029327008 7.0170380753081059 3.4125173874596229 H
atom 9.1957229690686333 4.8160784091912294 15.9054957889973672 H
atom 2.2082580201047737 2.0139964256617868 5.5109875571097531 H
atom 8.2121077518965606 9.8191200588375480 13.8070256193472360 H
atom 1.2034213665937228 1.8081001988314984 6.6962994052591789 H
atom 9.2169444054076113 10.0250162856678369 12.6217137711978111 H
atom 2.6753504123621905 2.2613085601878229 6.9872183833881101 H
atom 7.7450153596391438 9.5718079243115124 12.3307947930688773 H
atom 8.2150580206134727 5.6065305903557849 8.9693603604885670 H
atom 2.2053077513878616 6.2265858941435503 10.3486528159684212 H
atom 7.7754682204514776 6.7507929544068705 7.9925391178224530 H
atom 2.6448975515498572 5.0823235300924647 11.3254740586345370 H
atom 9.0473299252884409 6.9318396366197108 8.8898320809404474 H
atom 1.3730358467128934 4.9012768478796245 10.4281810955165426 H
atom 8.0636046223041387 3.4446202086377569 4.0389429617550050 H
atom 2.3567611496971952 8.3884962758615789 15.2790702147019850 H
atom 4.9058872632793173 1.1986946998797827 4.9019133958550842 H
atom 5.5144785087220169 10.6344217846195530 14.4160997806019040 H
atom 0.9561342590344036 2.5973690683476041 2.9122788174059164 H
atom 9.4642315129669310 9.2357474161517317 16.4057343590510705 H
atom 0.7200510432085692 1.3501585908813740 1.9913734551886102 H
atom 9.7003147287927654 10.4829578936179608 17.3266397212683785 H
atom 1.3285301889488688 1.1631953504262846 3.4247331729748098 H
atom 9.0918355830524664 10.6699211340730500 15.8932800034821788 H
atom 6.2156979586372225 4.2007563519972635 5.7078133917562219 H
atom 4.2046678133641127 7.6323601325020718 13.6101997847007663 H
atom 4.8307595506652712 3.5049691027087033 5.4682016950528674 H
atom 5.5896062213360631 8.3281473817906324 13.8498114814041209 H
atom 5.4921134379160712 4.3510369313504063 4.3262147408417162 H
atom 4.9282523340852631 7.4820795531489290 14.9917984356152729 H
atom 6.3000503986956193 10.7231701582532981 9.7539309800024405 H
atom 4.1203153733057150 1.1099463262460376 9.5640821964545477 H
atom 7.6888948469420866 9.9966168061050382 9.7467875718595902 H
atom 2.7314709250592477 1.8364996783942968 9.5712256045973980 H
atom 6.9723058302625471 10.3326773142648189 8.3927326337182357 H
atom 3.4480599417387872 1.5004391702345157 10.9252805427387525 H
atom 9.4962694198658024 7.9413228039123487 6.2155636626726585 C
atom 0.9240963521355311 3.8917936805869866 13.1024495137843306 C
atom 1.2074585140476644 8.8506978057461225 6.8606151301047538 C
atom 9.2129072579536704 2.9824186787532123 12.4573980463522354 C
atom 2.4188095493639916 8.5185422260262271 7.6318132495982116 C
atom 8.0015562226373422 3.3145742584731090 11.6861999268587784 C
atom 3.3477693654010898 7.5679879788263955 7.2425560652458945 C
atom 7.0725964066002440 4.2651285056729398 12.0754571112110956 C
atom 4.4443660062004318 7.2515704440308832 8.0475721570140788 C
atom 5.9759997658009025 4.5815460404684529 11.2704410194429112 C
atom 4.6287268650485913 7.8548227224106579 9.2454367252149741 C
atom 5.7916389069527439 3.9782937620886765 10.0725764512420159 C
atom 3.7433236256548201 8.8615842729118626 9.6752158854483259 C
atom 6.6770421463465146 2.9715322115874732 9.6427972910086641 C
atom 3.8970030686025279 9.5234104778899109 10.9147289870193127 C
atom 6.5233627033988055 2.3097060066094253 8.4032841894376755 C
atom 3.0441019556538444 10.5085174252244791 11.2925222310062470 C
atom 7.3762638163474890 1.3245990592748556 8.0254909454507413 C
atom 2.0285370315281108 10.9271730864460661 10.4289397296172943 C
atom 8.3918287404732226 0.9059433980532692 8.8890734468396957 C
atom 1.8302390758544271 10.3352805998914086 9.1993253944279463 C
atom 8.5901266961469069 1.4978358846079258 10.1186877820290420 C
atom 9.8759307473525464 10.8596059913195759 8.3138535110057035 C
atom 0.5444350246487881 0.9735104931797602 11.0041596654512848 C
atom 9.6562505641154672 10.2042880004080008 7.1375306911728664 C
atom 0.7641152078858677 1.6288284840913334 12.1804824852841236 C
atom 8.7701696469795767 10.6939423605365853 6.0715069649049154 C
atom 1.6501961250217574 1.1391741239627509 13.2465062115520738 C
atom 7.2158295105136476 0.1992696815989688 0.5698601745128828 C
atom 3.2045362614876871 11.6338468029003668 18.7481530019441074 C
atom 6.3341609132273522 0.6041989276985361 13.6249439091873388 C
atom 4.0862048587739821 11.2289175568008002 5.6930692672696495 C
atom 6.9678071787180738 11.5295970466719275 18.1511148243861520 C
atom 3.4525585932832610 0.3035194378274079 1.1668983520708383 C
atom 7.0770638446784728 10.1601504759208190 18.4318060536774944 C
atom 3.3433019273228619 1.6729660085785161 0.8862071227794961 C
atom 6.2786185224933941 9.1834450412902449 17.7910523122804314 C
atom 4.1417472495079410 2.6496714432090913 1.5269608641765562 C
atom 6.4826341132338809 7.8648808714224829 3.9630491128132745 C
atom 3.9377316587674533 3.9682356130768519 15.3549640636437132 C
atom 7.5205487803005884 7.4374687040023675 4.7954857016059451 C
atom 2.8998169917007459 4.3956477804969687 14.5225274748510440 C
atom 8.3183981948083527 8.3447137448689315 5.4658815289890601 C
atom 2.1019675771929816 3.4884027396304043 13.8521316474679299 C
atom 2.6606159551793547 9.2337357863493654 8.8348547355217040 C
atom 7.7597498168219792 2.5993806981499690 10.4831584409352843 C
atom 8.0441178240082536 9.7369982304351232 5.3181866847558741 C
atom 2.3762479479930811 2.0961182540642120 13.9998264917011159 C
atom 0.8220821140258917 6.4809978985602852 6.1341223109586815 C
atom 9.5982836579754434 5.3521185859390492 13.1838908654983076 C
atom 1.5409796187535463 5.8941936520939642 5.0845413270271278 C
atom 8.8793861532477880 5.9389228324053711 14.2334718494298613 C
atom 1.8787218580505944 4.5514899245978242 5.1789634994934568 C
atom 8.5416439139507396 7.2816265599015111 14.1390496769635341 C
atom 1.5146777502314510 3.7806807167975376 6.2665922812526036 C
atom 8.9056880217698833 8.0524357677017981 13.0514208952043855 C
atom 0.7456538678713639 4.3645266841427350 7.2553277852329554 C
atom 9.6747119041299712 7.4685898003566011 12.0626853912240328 C
atom 9.3817518660546746 5.7009588599020899 7.2980406502610986 C
atom 1.0386139059466593 6.1321576245972453 12.0199725261958896 C
atom 1.9917733550246386 6.7046438001173234 3.8968032024895711 C
atom 8.4285924169766950 5.1284726843820119 15.4212099739674180 C
atom 1.9388781951745588 2.3342005577323386 6.3750430257568711 C
atom 8.4814875768267761 9.4989159267669958 12.9429701507001180 C
atom 8.5271389894410952 6.3020811773146566 8.3860935932670735 C
atom 1.8932267825602378 5.5310353071846796 10.9319195831899165 C
atom 7.7061201866320310 0.2566602965487906 3.5690016645560729 C
atom 2.7142455853693037 11.5764561879505443 15.7490115119009175 C
atom 8.3287867358867178 1.5138105918619997 3.5528682375773157 C
atom 2.0915790361146165 10.3193058926373347 15.7651449388796721 C
atom 7.6444033979076176 2.6139354314259031 4.0492309569156344 C
atom 2.7759623740937163 9.2191810530734326 15.2687822195413556 C
atom 6.3711748866330158 2.5219921163413432 4.5552588040886386 C
atom 4.0491908853683167 9.3111243681579907 14.7627543723683505 C
atom 5.7691083845306785 1.2775032556665482 4.5641780786548303 C
atom 4.6512573874706558 10.5556132288327884 14.7538350978021597 C
atom 6.4129135278023357 0.1354891837475174 4.0844560350810584 C
atom 4.0074522441989986 11.6976273007518188 15.2335571413759308 C
atom 0.7073439644283047 1.6702443917870811 2.8967681931806171 C
atom 9.7130218075730284 10.1628720927122540 16.4212449832763738 C
atom 5.6629866623374907 3.7574878084879186 5.0604184181710918 C
atom 4.7573791096638427 8.0756286760114158 14.2575947582858955 C
atom 7.1351855706897203 10.6339484599601732 9.2898746506950616 C
atom 3.2851802013116145 1.1991680245391627 10.0281385257619284 C
