#=======================================================
# FHI-aims file: pahs_geometry_fix/ZZZOYC01.in
# Created using the Atomic Simulation Environment (ASE)
# Tue May 25 14:20:53 2021
#=======================================================
lattice_vector -0.0000000000000010 -6.1539999999999999 -0.0000000000000004 
lattice_vector -8.4797267035928403 0.0000000000000000 0.0680810720721611 
lattice_vector 0.0000000000000000 0.0000000000000000 -13.5150000000000006 
atom -4.1966167456080967 -0.5378595999999995 -9.3376076774314889 H
atom -4.2831099579847454 -3.6148595999999995 -4.1093112504963498 H
atom -4.7961334235521109 -0.5157051999999999 -11.7546823456359846 H
atom -3.6835932800407303 -3.5927051999999993 -1.6922365822918530 H
atom -3.9515526438742641 -4.9336617999999994 -13.1899987204143727 H
atom -4.5281740597185767 -1.8566617999999990 -0.2569202075134653 H
atom -2.6651781029392305 -3.0431530000000002 -12.3583421190477196 H
atom -5.8145486006536116 -6.1201530000000002 -1.0885768088801175 H
atom -1.6442190078266516 -1.9477409999999993 -10.3892945801252097 H
atom -6.8355076957661893 -5.0247409999999997 -3.0576243478026290 H
atom -1.1634185037329379 -1.7692749999999993 -8.0428962769116978 H
atom -7.3163081998599031 -4.8462749999999994 -5.4040226510161400 H
atom -3.7760223011098919 -0.4627807999999996 -7.5083504986062666 H
atom -4.7037044024829484 -3.5397807999999995 -5.9385684293215730 H
atom -3.0789887660745601 -0.5052433999999990 -5.1069252627305977 H
atom -5.4007379375182811 -3.5822433999999999 -8.3399936651972411 H
atom -0.6012126232847324 -1.8185069999999999 -6.2336970519900827 H
atom -7.8785140803081086 -4.8955070000000003 -7.2132218759377560 H
atom -8.4322402340527205 -1.7372741999999992 -3.8421896819314418 H
atom -0.0474864695401202 -4.8142741999999998 -9.6047292459963973 H
atom -2.5795328632329424 -0.3760093999999995 -3.3107372378756494 H
atom -5.9001938403598988 -3.4530093999999996 -10.1361816900521902 H
atom -1.7883743617877299 -0.2910842000000001 -0.9668307018999812 H
atom -6.6913523418051106 -3.3680842000000002 -12.4800882260278581 H
atom -0.4782565860826370 -4.5490368000000005 -0.1718552275351306 H
atom -8.0014701175102037 -1.4720367999999990 -13.2750637003927086 H
atom -8.3270916229281688 -2.7212987999999996 -1.6103558872251378 H
atom -0.1526350806646722 -5.7982988000000004 -11.8365630407027016 H
atom -3.1307150989664772 -4.8278129999999999 -9.3975224681909602 C
atom -5.3490116046263640 -1.7508129999999997 -4.0493964597368786 C
atom -3.8718432128604920 -5.8776853999999998 -9.9605536824918524 C
atom -4.6078834907323509 -2.8006853999999990 -3.4863652454359886 C
atom -4.1847451282230681 -5.8721467999999994 -11.3338684909323888 C
atom -4.2949815753697740 -2.7951468000000004 -2.1130504369954499 C
atom -3.7327756949215694 -4.8801220000000001 -12.1429912120738344 C
atom -4.7469510086712718 -1.8031219999999994 -1.3039277158540052 C
atom -3.0111509524458180 -3.8105567999999996 -11.6852204113071760 C
atom -5.4685757511470232 -0.7335567999999991 -1.7616985166206627 C
atom -2.7389517252604878 -3.7859407999999997 -10.2899548137206924 C
atom -5.7407749783323530 -0.7089407999999991 -3.1569641142071472 C
atom -1.9969756386961146 -2.7440685999999999 -9.7323364075270078 C
atom -6.4827510648967266 -5.8210685999999994 -3.7145825204008314 C
atom -1.6764419693003048 -2.6548356000000002 -8.4050338720513338 C
atom -6.8032847342925367 -5.7318356000000001 -5.0418850558765058 C
atom -2.0071513107404262 -3.6973232000000000 -7.4995767102405209 C
atom -6.4725753928524146 -0.6203231999999993 -5.9473422176873179 C
atom -2.7414956432715663 -4.7656575999999999 -7.9937358893990700 C
atom -5.7382310603212758 -1.6886575999999998 -5.4531830385287696 C
atom -3.1637860331104894 -5.8216839999999994 -7.1199794520098765 C
atom -5.3159406704823517 -2.7446839999999990 -6.3269394759179631 C
atom -2.7940699488338421 -5.8401459999999998 -5.7633387867522226 C
atom -5.6856567547590000 -2.7631459999999999 -7.6835801411756162 C
atom -2.0359823815326417 -4.7287336000000000 -5.2909942345954750 C
atom -6.4437443220601986 -1.6517335999999998 -8.1559246933323646 C
atom -1.6433710351562929 -3.6850152000000000 -6.1172098882324155 C
atom -6.8363556684365481 -0.6080151999999993 -7.3297090396954241 C
atom -0.8971550852401230 -2.6222193999999996 -5.5826010225747638 C
atom -7.5825716183527190 -5.6992194000000005 -7.8643179053530750 C
atom -0.5257430556227570 -2.5822183999999999 -4.2692219735315264 C
atom -7.9539836479700847 -5.6592183999999994 -9.1776969543963123 C
atom -0.8589963150739548 -3.6382447999999998 -3.3718533873990904 C
atom -7.6207303885188864 -0.5612447999999997 -10.0750655405287493 C
atom -1.6196278003862328 -4.7028867999999999 -3.8725590152342160 C
atom -6.8600989032066080 -1.6258868000000000 -9.5743599126936232 C
atom -1.9622087592113846 -5.7059888000000001 -2.9832245399225008 C
atom -6.5175179443814573 -2.6289888000000001 -10.4636943880053384 C
atom -1.5348305333503054 -5.6438334000000001 -1.6419133259549372 C
atom -6.9448961702425365 -2.5668334000000002 -11.8050056019729013 C
atom -0.7852226927526978 -4.5810375999999993 -1.2019366927261173 C
atom -7.6945040108401432 -1.5040375999999991 -12.2449822352017215 C
atom -0.4316180892128766 -3.5582428000000004 -2.0345966734315279 C
atom -8.0481086143799647 -0.4812428000000003 -11.4123222544963117 C
