#=======================================================
# FHI-aims file: pahs_geometry_fix/QQQCIG14.in
# Created using the Atomic Simulation Environment (ASE)
# Tue May 25 14:20:53 2021
#=======================================================
lattice_vector 6.7616744769221491 0.0000000000000000 -1.8853494180494972 
lattice_vector -1.0964950289861886 8.4604190302708524 -0.4530725368408313 
lattice_vector 0.0000000000000000 0.0000000000000000 11.9480000000000004 
atom 4.6033051973338166 7.2522711927481742 9.2385915685030628 H
atom 1.0618742506021437 1.2081478375226777 0.3709864766066099 H
atom 0.1156049093859054 1.6853154708299536 8.8230140894096625 H
atom 5.5495745385500550 6.7751035594408986 0.7865639557000104 H
atom 5.7982782853708574 4.3918035186135995 6.6397284991487133 H
atom -0.1330988374348968 4.0686155116572529 2.9698495459609591 H
atom -0.1475568588912967 7.1592065834151946 0.2772186964823766 H
atom 5.8127363068272571 1.3012124468556570 9.3323593486272944 H
atom 2.4725977081883048 0.5228538960707387 10.2892887408620410 H
atom 3.1925817397476548 7.9375651342001143 -0.6797106957523689 H
atom 4.3007518159857252 2.4391388064270867 7.2383886049845927 H
atom 1.3644276319502351 6.0212802238437657 2.3711894401250802 H
atom 4.1986110292030832 5.8723768489109993 7.3663713540394733 H
atom 1.4665684187328778 2.5880421813598540 2.2432066910701991 H
atom 2.1107165693918639 4.7446029921758939 7.0795077709239100 H
atom 3.5544628785440961 3.7158160380949581 2.5300702741857624 H
atom 1.8135846062036205 7.1363634520334642 6.2680008008647130 H
atom 3.8515948417323398 1.3240555782373884 3.3415772442449594 H
atom 1.0551805966804488 7.1135203206517330 8.4828044411865573 H
atom 4.6099988512555115 1.3468987096191198 1.1267736039231155 H
atom 0.2527752799049665 1.9729697178591628 4.7886472081713958 H
atom 5.4124041680309940 6.4874493124116901 4.8209308369382757 H
atom 3.9665439539463110 0.5727703683493367 5.8835985770294972 H
atom 1.6986354939896491 7.8876486619215163 3.7259794680801757 H
atom 6.3095004587705761 0.8646548248936811 4.8313584444132607 H
atom -0.6443210108346160 7.5957642053771712 4.7782196006964126 H
atom 1.5252476387114897 3.9247883881426482 4.9744737452102497 H
atom 4.1399318092244712 4.5356306421282042 4.6351042998994210 H
atom 2.6966621734468830 3.7868835579492335 10.2083914968415126 C
atom 2.9685172744890771 4.6735354723216185 -0.5988134517318394 C
atom 1.4683399236024448 3.9256344300456756 9.4999184930681828 C
atom 4.1968395243335159 4.5347846002251773 0.1096595520414903 C
atom 0.4734592848204220 4.7987496739696276 9.9685578513798614 C
atom 5.1917201631155381 3.6616693563012253 -0.3589798062701902 C
atom 3.6827161663378947 2.8201396767569507 9.8391454044668230 C
atom 1.9824632815980658 5.6402793535139013 -0.2295673593571508 C
atom 0.7312428163153746 5.6583282474451453 11.0860736034113323 C
atom 4.9339366316205862 2.8020907828257062 -1.4764955583016595 C
atom 1.1929941204501258 3.2902569608723349 8.1719609047997466 C
atom 4.4721853274858345 5.1701620693985175 1.4376171403099258 C
atom 3.4018700842426681 1.6793931775087643 8.9048979579551997 C
atom 2.2633093636932924 6.7810258527620881 0.7046800871544725 C
atom 5.2735704076428149 6.6456591482777547 8.9448107953152185 C
atom 0.3916090402931458 1.8147598819930979 0.6647672497944533 C
atom 0.4136298892079379 2.1404860146585256 8.0443419376546110 C
atom 5.2515495587280228 6.3199330156123263 1.5652361074550603 C
atom 5.9737706860338120 4.9315782527448793 7.4014454874230724 C
atom -0.3085912380978520 3.5288407775259727 2.2081325576866004 C
atom -0.3014301447373059 6.5830520474537506 -0.4609778534286897 C
atom 5.9666095926732661 1.8773669828171020 10.0705558985383608 C
atom 2.7767085719349058 0.5397747341312803 9.3893174671507165 C
atom 2.8884708760010542 7.9206442961395727 0.2202605779589551 C
atom 3.8561266891586374 1.6751629679936288 7.5885967482724990 C
atom 1.8090527587773231 6.7852560622772238 2.0209812968371730 C
atom 5.0283964612968211 5.8139999576021300 7.8248594653088555 C
atom 0.6367829866391396 2.6464190726687229 1.7847185798008161 C
atom 1.5928460861293152 3.9510156871364881 7.0119134514565227 C
atom 4.0723333618066455 4.5094033431343643 2.5976645936531484 C
atom 1.9382546103390914 7.8961090809517867 6.8246279562607723 C
atom 3.7269248375968695 0.5643099493190659 2.7849500888488987 C
atom 1.4903576496701463 7.8825724105033528 8.1347754086200101 C
atom 4.1748217982658140 0.5778466197674992 1.4748026364896627 C
atom 0.4855776143545334 2.3105404371669698 5.6445196227532222 C
atom 5.1796018335814269 6.1498785931038826 3.9650584223564493 C
atom 3.6631275280777027 0.5609257817069575 6.7841157373351058 C
atom 2.0020519198582578 7.8994932485638945 2.8254623077745662 C
atom 0.0709778847593148 1.6540119204179518 6.7891829736059295 C
atom 5.5942015631766457 6.8064071098529011 2.8203950715037434 C
atom 1.2434324072037699 3.4645415928959138 5.7562502368258910 C
atom 4.4217470407321908 4.9958774373749382 3.8533278082837814 C
