#=======================================================
# FHI-aims file: pahs_geometry_fix/VEHCAM.in
# Created using the Atomic Simulation Environment (ASE)
# Tue May 25 14:20:53 2021
#=======================================================
lattice_vector 12.9360670546606098 0.0000000000000000 -2.1345936749940027 
lattice_vector 0.0000000000000021 13.1310000000000002 0.0000000000000008 
lattice_vector 0.0000000000000000 0.0000000000000000 23.8350000000000009 
atom 4.7966936638681545 0.2324187000000000 22.2354861653122242 H
atom 8.1393733907924570 12.8985813000000000 -0.5350798403062256 H
atom 1.6713398634621519 6.7979187000000012 12.4497169971907766 H
atom 11.2647271911984603 6.3330812999999999 9.2506893278152234 H
atom 5.4085696355536035 11.7706283999999997 20.6734343844850095 H
atom 7.5274974191070081 1.3603715999999999 1.0269719405209903 H
atom 1.0594638917767047 5.2051283999999995 14.0117687780179914 H
atom 11.8766031628839084 7.9258716000000007 7.6886375469880068 H
atom 6.9815953894003320 12.2919291000000008 19.0147532936057360 H
atom 5.9544716652602787 0.8390709000000000 2.6856530314002609 H
atom 12.4225051925905863 5.7264290999999998 13.5358561939032604 H
atom 0.5135618620700274 7.4045708999999995 8.1645501311027395 H
atom 8.0125999336567819 1.2356271000000001 19.0138546777087143 H
atom 4.9234671210038297 11.8953728999999999 2.6865516472972839 H
atom 11.3915006483341354 7.8011270999999995 13.5367548098002839 H
atom 1.5445664063264777 5.3298728999999998 8.1636515152057179 H
atom 8.3722225977763465 3.2367914999999998 18.7090124735438827 H
atom 4.5638444568842651 9.8942084999999995 2.9913938514621163 H
atom 11.0318779842145691 9.8022915000000008 13.8415970139651154 H
atom 1.9041890704460422 3.3287085000000003 7.8588093110408828 H
atom 9.3463084469922908 5.3272466999999999 18.6388505698168352 H
atom 3.5897586076683208 7.8037533000000012 3.0615557551891648 H
atom 10.0577921349986248 11.8927467000000000 13.9117589176921648 H
atom 2.8782749196619859 1.2382533000000000 7.7886474073138352 H
atom 9.1871948222199684 6.7414553999999995 20.5147020720192614 H
atom 3.7488722324406458 6.3895445999999998 1.1857042529867385 H
atom 10.2169057597709489 0.1759554000000000 12.0359074154897367 H
atom 2.7191612948896622 12.9550446000000008 9.6644989095162614 H
atom 8.1316117505596619 6.0113718000000000 22.4407574158987728 H
atom 4.8044553041009515 7.1196282000000002 -0.7403510908927722 H
atom 11.2724888314312572 12.5768717999999993 10.1098520716102271 H
atom 1.6635782232293543 0.5541282000000001 11.5905542533957728 H
atom 3.0412693645507098 2.8441745999999997 21.2571285270089128 H
atom 9.8947976901099022 10.2868253999999997 0.4432777979970881 H
atom 3.4267641627795973 9.4096746000000007 13.4280746354940881 H
atom 9.5093028918810134 3.7213254000000000 8.2723316895119083 H
atom 1.2664409646512740 1.4877423000000001 20.5870607792180884 H
atom 11.6696260900093378 11.6432577000000013 1.1133455457879111 H
atom 5.2015925626790320 8.0532422999999991 14.0981423832849107 H
atom 7.7344744919815795 5.0777577000000003 7.6022639417210867 H
atom 0.5782421973433314 12.8486834999999999 21.9781771627277713 H
atom 12.3578248573172811 0.2823165000000000 -0.2777708377217711 H
atom 5.8897913299869762 6.2831834999999998 12.7070259997752313 H
atom 7.0462757246736345 6.8478164999999995 8.9933803252307669 H
atom 1.6312380555927048 12.4980858000000001 0.1836927375832571 H
atom 11.3048289990679063 0.6329142000000000 21.5167135874227426 H
atom 4.8367954717376032 5.9325858000000000 10.6665104249197427 H
atom 8.0992715829230093 7.1984142000000002 11.0338959000862555 H
atom 3.3685518610336231 0.7537194000000000 0.8814023070315616 H
atom 9.5675151936269884 12.3772806000000006 20.8190040179744358 H
atom 3.0994816662966835 7.3192194000000006 9.9688008554714376 H
atom 9.8365853883639289 5.8117805999999996 11.7316054695345624 H
atom 9.4886051845935580 3.7659707999999998 0.4054300393918991 H
atom 3.4474618700670541 9.3650291999999986 21.2949762856141014 H
atom 9.9154953973973594 10.3314708000000017 8.3101794481170987 H
atom 3.0205716572632531 2.7995292000000003 13.3902268768889012 H
atom 11.2569655509656616 5.2182594000000000 0.8358315840202193 H
atom 1.6791015036949484 7.9127406000000002 20.8645747409857805 H
atom 8.1471350310252539 11.7837593999999992 7.8797779034887787 H
atom 4.7889320236353576 1.3472405999999999 13.8206284215172204 H
atom 10.8339561582782622 7.4452769999999990 1.3942502971925235 H
atom 2.1021108963823503 5.6857230000000003 20.3061560278134756 H
atom 8.5701444237126534 0.8797770000000000 7.3213591903164739 H
atom 4.3659226309479582 12.2512230000000013 14.3790471346895234 H
atom 8.6361183656914253 8.1924308999999997 1.6210582625740044 H
atom 4.2999486889691871 4.9385690999999996 20.0793480624319933 H
atom 10.7679822162994920 1.6269309000000001 7.0945512249349916 H
atom 2.1680848383611200 11.5040691000000006 14.6058551000710075 H
atom 6.8703452127302507 6.7309505999999990 1.2545842992106855 H
atom 6.0657218419303609 6.4000494000000003 20.4458220257953158 H
atom 12.5337553692606640 0.1654506000000000 7.4610251882983114 H
atom 0.4023116853999470 12.9655494000000004 14.2393811367076868 H
atom 7.8405502418297957 2.4161039999999998 3.1252317735861355 H
atom 5.0955168128308159 10.7148959999999995 18.5751745514198632 H
atom 11.5635503401611217 8.9816040000000008 5.5903777139228614 H
atom 1.3725167144994914 4.1493960000000003 16.1100286110831377 H
atom 9.7719050530906237 2.5264043999999997 4.3915644379095315 H
atom 3.1641620015699869 10.6045955999999997 17.3088418870964666 H
atom 9.6321955289002918 9.0919044000000007 4.3240450495994658 H
atom 3.3038715257603202 4.0390955999999996 17.3763612754065342 H
atom 10.3346239699683622 4.4802971999999999 5.5333626130472924 H
atom 2.6014430846922498 8.6507028000000012 16.1670437119587085 H
atom 9.0694766120225552 11.0457971999999991 3.1822468744617058 H
atom 3.8665904426380568 2.0852027999999998 18.5181594505442924 H
atom 8.9504647951196770 6.3645957000000006 5.3327341362716503 H
atom 3.9856022595409346 6.7664042999999996 16.3676721887343497 H
atom 10.4536357868712404 12.9300957000000007 3.3828753512373471 H
atom 2.4824312677893707 0.2009043000000000 18.3175309737686511 H
atom 6.9971186698659249 6.2516691000000000 4.0962487811957446 H
atom 5.9389483847946867 6.8793309000000002 17.6041575438102527 H
atom 12.4069819121249925 12.8171690999999992 4.6193607063132536 H
atom 0.5290851425356189 0.3138309000000000 17.0810456186927482 H
atom 5.4835988244706328 2.3465096999999999 5.2993962411700419 H
atom 7.4524682301899787 10.7844902999999999 16.4010100838359563 H
atom 0.9844347028596738 8.9120097000000005 5.5508069213329572 H
atom 11.9516323518009386 4.2189902999999997 16.1495994036730401 H
atom 5.5586280133876640 2.4449922000000002 7.6276125978550775 H
atom 7.3774390412729476 10.6860078000000005 14.0727937271509198 H
atom 0.9094055139426424 9.0104921999999998 3.2225905646479220 H
atom 12.0266615407179689 4.1205078000000004 18.4778157603580766 H
atom 4.9299351545311589 4.3713099000000000 8.7467248504597865 H
atom 8.0061319001294535 8.7596901000000003 12.9536814745462117 H
atom 1.5380983727991484 10.9368099000000001 2.1034783120432139 H
atom 11.3979686818614638 2.1941901000000001 19.5969280129627847 H
atom 4.2740765548598665 6.2529821999999999 7.5464072497819821 H
atom 8.6619904998007460 6.8780178000000003 14.1539990752240179 H
atom 2.1939569724704415 12.8184822000000000 3.3037959127210179 H
atom 10.7421100821901714 0.3125178000000000 18.3966104122849785 H
atom 4.2106898262920298 6.1807617000000006 5.1972017587894523 H
atom 8.7253772283685826 6.9502382999999996 16.5032045662165459 H
atom 2.2573437010382786 12.7462616999999998 5.6530014037135485 H
atom 10.6787233536223329 0.3847383000000000 16.0474049212924506 H
atom 2.2327651736344216 2.3346918000000003 4.5797151316960356 H
atom 10.7033018810261904 10.7963082000000004 17.1206911933099626 H
atom 4.2352683536958855 8.9001918000000000 6.2704880308069644 H
atom 8.7007987009647252 4.2308082000000002 15.4299182941990356 H
atom 0.3078783959009230 2.6984205000000001 5.9293981705351433 H
atom 12.6281886587596883 10.4325794999999992 15.7710081544708558 H
atom 6.1601551314293843 9.2639205000000011 4.9208049919678567 H
atom 6.7759119232312290 3.8670795000000000 16.7796013330381442 H
atom 12.1948304124285567 4.7783709000000005 3.7462545425831544 H
atom 0.7412366422320542 8.3526290999999997 17.9541517824228443 H
atom 7.2092701695623598 11.3438709000000006 4.9693549449258434 H
atom 5.7267968850982518 1.7871291000000000 16.7310513800801566 H
atom 0.1034885364372859 6.5116629000000001 4.6164472506000482 H
atom 12.8325785182233272 6.6193371000000001 17.0839590744059500 H
atom 6.3645449908930214 13.0771629000000011 6.2337559119029518 H
atom 6.5715220637675902 0.0538371000000000 15.4666504131030482 H
atom 1.9429972716100246 6.1387425000000002 3.2284155300159014 H
atom 10.9930697830505881 6.9922575000000000 18.4719907949900985 H
atom 4.5250362557202832 12.7042425000000012 7.6217876324870995 H
atom 8.4110307989403292 0.4267575000000000 14.0786186925189014 H
atom 2.5703965237610640 5.2090677000000003 23.3941717367786914 H
atom 10.3656705308995480 7.9219322999999990 -1.6937654117726939 H
atom 3.8976370035692436 11.7745677000000004 11.2910314257243094 H
atom 9.0384300510913675 1.3564323000000000 10.4093748992816906 H
atom 0.4592303804404525 5.6528954999999996 22.5555544245377142 H
atom 12.4768366742201611 7.4781045000000006 -0.8551480995317149 H
atom 6.0088031468898553 12.2183954999999997 12.1296487379652866 H
atom 6.9272639077707563 0.9126045000000002 9.5707575870407116 H
atom 11.5260357457026039 4.5052460999999999 21.2466290355803444 H
atom 1.4100313089580079 8.6257539000000012 0.4537772894256543 H
atom 7.8780648362883126 11.0707460999999991 11.3039804519286555 H
atom 5.0580022183722990 2.0602539000000002 10.3964258730773462 H
atom 11.8442629952472540 2.8205388000000000 -0.9843494688245085 H
atom 1.0918040594133571 10.3104612000000007 22.6847557938305080 H
atom 7.5598375867436625 9.3860387999999997 9.6999589563335054 H
atom 5.3762294679169509 3.7449612000000001 12.0004473686724928 H
atom 0.9870219162706050 2.4055992000000002 2.0275670025979577 H
atom 11.9490451383900069 10.7254007999999992 19.6728393224080413 H
atom 5.4810116110597020 8.9710992000000012 8.8226361599050431 H
atom 7.4550554436009104 4.1599008000000008 12.8777701651009568 H
atom 4.5703124904115935 2.7535707000000000 -0.4133114453753809 C
atom 8.3657545642490181 10.3774293000000011 22.1137177703813812 C
atom 1.8977210369187130 9.3190706999999993 11.2635146078783812 C
atom 11.0383460177418975 3.8119293000000001 10.4368917171276170 C
atom 5.7229160649818542 2.7483183000000002 22.6332377581826520 C
atom 7.2131509896787573 10.3826816999999991 -0.9328314331766551 C
atom 0.7451174623484526 9.3138183000000012 12.0519654043203470 C
atom 12.1909495923121582 3.8171817000000003 9.6484409206856530 C
atom 6.0100967535953194 1.7477361000000000 21.5680952785977880 C
atom 6.9259703010652922 11.3832639000000011 0.1323110464082118 C
atom 0.4579367737349869 8.3132360999999992 13.1171078839052129 C
atom 12.4781302809256243 4.8177639000000001 8.5832984411007853 C
atom 5.4499650501285153 0.4569588000000000 21.5699501847250268 C
atom 7.4861020045320963 12.6740411999999996 0.1304561402809713 C
atom 1.0180684772017912 7.0224588000000008 13.1152529777779741 C
atom 11.9179985774588211 6.1085412000000003 8.5851533472280259 C
atom 5.8095877142480816 12.6425268000000006 20.6477814805601945 C
atom 7.1264793404125291 0.4884731999999999 1.0526248444458042 C
atom 0.6584458130822261 6.0770267999999996 14.0374216819428064 C
atom 12.2776212415783874 7.0539732000000006 7.6629846430631918 C
atom 6.7474525757109749 12.9445398000000012 19.6802499391231294 C
atom 6.1886144789496358 0.1864602000000000 2.0201563858828693 C
atom 12.6566480062799425 6.3790398000000001 12.8703595483858706 C
atom 0.2794190483806703 6.7519602000000001 8.8300467766201312 C
atom 7.3425116602253624 1.0412882999999999 19.6726316300734041 C
atom 5.5935553944352492 12.0897117000000005 2.0277746949325941 C
atom 12.0615889217655550 7.6067883000000007 12.8779778574355941 C
atom 0.8744781328950580 5.5242117000000004 8.8224284675704059 C
atom 6.9945314564549914 2.0287394999999999 20.6119471999307429 C
atom 5.9415355982056193 11.1022604999999999 1.0884591250752553 C
atom 12.4095691255359259 8.5942395000000005 11.9386622875782535 C
atom 0.5264979291246876 4.5367604999999998 9.7617440374277447 C
atom 7.6478028427153530 3.3379002000000000 20.6185582193435479 C
atom 5.2882642119452594 9.7930998000000002 1.0818481056624525 C
atom 11.7562977392755652 9.9034002000000001 11.9320512681654503 C
atom 1.1797693153850481 3.2275998000000001 9.7683550568405479 C
atom 8.3165975094413067 3.8066768999999998 19.4809112263463575 C
atom 4.6194695452193049 9.3243230999999991 2.2194950986596420 C
atom 11.0875030725496106 10.3721769000000013 13.0696982611626407 C
atom 1.8485639821110016 2.7588231000000003 8.6307080638433575 C
atom 8.8896652799627720 5.0344253999999999 19.4316352265441239 C
atom 4.0464017746978396 8.0965746000000003 2.2687710984618765 C
atom 10.5144353020281454 11.5999254000000001 13.1189742609648761 C
atom 2.4216317526324667 1.5310746000000000 8.5814320640411239 C
atom 8.8029936306965464 5.8616784000000006 20.5423470041665830 C
atom 4.1330734239640661 7.2693215999999996 1.1580593208394168 C
atom 10.6011069512943710 12.4271784000000007 12.0082624833424170 C
atom 2.3349601033662402 0.7038216000000000 9.6921438416635830 C
atom 8.1717135584291078 5.4283554000000001 21.6785706755062897 C
atom 4.7643534962315037 7.7026446000000002 0.0218356494997092 C
atom 11.2323870235618095 11.9938553999999993 10.8720388120027103 C
atom 1.7036800310988027 1.1371446000000001 10.8283675130032915 C
atom 7.5779480806201862 4.1546484000000001 21.7622475251885135 C
atom 5.3581189740404263 8.9763515999999992 -0.0618412001825152 C
atom 11.8261525013707320 10.7201484000000011 10.7883619623204829 C
atom 1.1099145532898809 2.4108516000000004 10.9120443626855153 C
atom 6.7487461824164416 3.7134467999999998 -0.9181705202443710 C
atom 6.1873208722441717 9.4175531999999986 22.6185768452503702 C
atom 12.6553543995744757 10.2789468000000017 9.6337800077533693 C
atom 0.2807126550861357 2.8520532000000003 12.0666263172526307 C
atom 6.8483538987373276 4.2242426999999996 0.3763181084581754 C
atom 6.0877131559232849 8.9067573000000007 21.3240882165478212 C
atom 12.5557466832535898 10.7897426999999997 8.3392913790508221 C
atom 0.3803203714070223 2.3412572999999997 13.3611149459551779 C
atom 5.7927708270770220 3.9642489000000003 1.3227549523376860 C
atom 7.1432962275835905 9.1667511000000008 20.3776513726683142 C
atom 0.6752627002532855 10.5297488999999995 9.5274482101653142 C
atom 12.2608043544073251 2.6012510999999998 12.1729581148406858 C
atom 5.9079018238635017 4.1874758999999999 2.7553085686302392 C
atom 7.0281652307971108 8.9435241000000012 18.9450977563757590 C
atom 0.5601317034668062 10.7529758999999991 8.0948945938727608 C
atom 12.3759353511938048 2.3780241000000002 13.6055117311332374 C
atom 4.7565918559987077 4.1507091000000003 3.5149439057047056 C
atom 8.1794751986619048 8.9802909000000000 18.1854624193012917 C
atom 1.7114416713316005 10.7162091000000004 7.3352592567982944 C
atom 11.2246253833290108 2.4147909000000003 14.3651470682077047 C
atom 3.4823892511146366 3.9997026000000000 2.9267288826916147 C
atom 9.4536778035459754 9.1312974000000011 18.7736774423143835 C
atom 2.9856442762156705 10.5652025999999992 7.9234742798113853 C
atom 9.9504227784449402 2.5657974000000001 13.7769320451946147 C
atom 3.3491477604516326 3.6911241000000001 1.5758191975440530 C
atom 9.5869192942089789 9.4398759000000005 20.1245871274619468 C
atom 3.1188857668786749 10.2566240999999998 9.2743839649589468 C
atom 9.8171812877819367 2.8743759000000000 12.4260223600470532 C
atom 4.5599636367678658 3.4849674000000004 0.8063647295646144 C
atom 8.3761034178927467 9.6460325999999998 20.8940415954413830 C
atom 1.9080698905624414 10.0504674000000005 10.0438384329383847 C
atom 11.0279971640981707 3.0805326000000002 11.6565678920676135 C
atom 3.3918367817320121 1.9315701000000001 23.0274255384165727 C
atom 9.5442302729285995 11.1994299000000002 -1.3270192134105745 C
atom 3.0761967455982946 8.4970701000000002 11.6577776240864264 C
atom 9.8598703090623161 4.6339299000000000 10.0426287009195718 C
atom 2.7515014625263121 2.1298482000000001 21.8293134253287739 C
atom 10.1845655921342999 11.0011518000000006 -0.1289071003227774 C
atom 3.7165320648039946 8.6953481999999997 12.8558897371742251 C
atom 9.2195349898566175 4.4356517999999996 8.8445165878317749 C
atom 1.7062672445097344 1.3301703000000000 21.4249815942682922 C
atom 11.2297998101508778 11.8008297000000013 0.2754247307377072 C
atom 4.7617662828205711 7.8956702999999990 13.2602215682347104 C
atom 8.1743007718400396 5.2353297000000003 8.4401847567712913 C
atom 1.2974875255824592 0.2928213000000000 22.2503877543981012 C
atom 11.6385795290781537 12.8381787000000003 -0.5499814293921034 C
atom 5.1705460017478471 6.8583213000000001 12.4348154081048978 C
atom 7.7655210529127645 6.2726787000000002 9.2655909169011021 C
atom 1.9197123509116345 0.0866646000000000 23.4538717986308889 C
atom 11.0163547037489771 13.0443353999999996 -1.7534654736248918 C
atom 4.5483211764186713 6.6521646000000008 11.2313313638721102 C
atom 8.3877458782419403 6.4788354000000004 10.4690749611338898 C
atom 2.9520105018735512 0.8968473000000000 0.0277217233663687 C
atom 9.9840565527870613 12.2341526999999992 21.6726846016396308 C
atom 3.5160230254567550 7.4623473000000002 10.8224814391366309 C
atom 9.4200440292038579 5.6686527000000000 10.8779248858693673 C
atom 7.9919022263693256 5.1013935000000004 0.7644270275887056 C
atom 4.9441648282912860 8.0296064999999999 20.9359792974172940 C
atom 11.4121983556215909 11.6668935000000005 7.9511824599202923 C
atom 1.5238686990390200 1.4641065000000000 13.7492238650857086 C
atom 9.3062066391228431 4.6746359999999996 0.6571933102093146 C
atom 3.6298604155377685 8.4563640000000007 21.0432130147966845 C
atom 10.0978939428680725 11.2401359999999997 8.0584161772996818 C
atom 2.8381731117925382 1.8908639999999999 13.6419901477063163 C
atom 10.3527344638448877 5.5334034000000001 0.9016171819023001 C
atom 2.5833325908157247 7.5975966000000001 20.7987891431036971 C
atom 9.0513661181460296 12.0989033999999993 7.8139923056066980 C
atom 3.8847009365145815 1.0320966000000000 13.8864140193993020 C
atom 10.1030683696899377 6.8412510000000006 1.2455193398296844 C
atom 2.8329986849706743 6.2897489999999996 20.4548869851763158 C
atom 9.3010322123009779 0.2757510000000000 7.4700901476793131 C
atom 3.6350348423596341 12.8552490000000006 14.2303161773266851 C
atom 8.8120488776348100 7.2811395000000001 1.3727457885940859 C
atom 4.1240181770258033 5.8498605000000001 20.3276605364119121 C
atom 10.5920517043561073 0.7156395000000000 7.3428636989149112 C
atom 2.3440153503045043 12.4153605000000002 14.3575426260910888 C
atom 7.7719890864400956 6.4184328000000006 1.1463226200636039 C
atom 5.1640779682205160 6.7125671999999996 20.5540837049423963 C
atom 11.6321114955508218 12.9839327999999998 7.5692868674453946 C
atom 1.3039555591097896 0.1470672000000000 14.1311194575606045 C
atom 7.2079765628568930 4.3266645000000006 3.4560459042933416 C
atom 5.7280904918037203 8.8043355000000005 18.2443604207126562 C
atom 12.1961240191340234 10.8921644999999998 5.2595635832156553 C
atom 0.7399430355265872 2.2388355000000004 16.4408427417903411 C
atom 8.0591697750535598 3.2341652999999999 3.5777746404787369 C
atom 4.8768972796070518 9.8968347000000012 18.1226316845272635 C
atom 11.3449308069373558 9.7996652999999991 5.1378348470302599 C
atom 1.5911362477232553 3.3313346999999998 16.5625714779757374 C
atom 9.2014244959800919 3.2958810000000001 4.3307725189767661 C
atom 3.7346425586805201 9.8351190000000006 17.3696338060292348 C
atom 10.2026760860108237 9.8613809999999997 4.3848369685322313 C
atom 2.7333909686497870 3.2696190000000001 17.3155693564737660 C
atom 9.5377622394012675 4.4435304000000002 4.9974735834269222 C
atom 3.3983048152593436 8.6874696000000000 16.7029327415790796 C
atom 9.8663383425896498 11.0090304000000003 3.7181359040820747 C
atom 3.0697287120709631 2.1219695999999999 17.9822704209239213 C
atom 8.7163219814303208 5.5478474999999996 4.8851362817890411 C
atom 4.2197450732302917 7.5831525000000006 16.8152700432169588 C
atom 10.6877786005605984 12.1133474999999997 3.8304732057199553 C
atom 2.2482884541000141 1.0176525000000001 17.8699331192860420 C
atom 7.5675992269764576 5.4821925000000000 4.1451232001285092 C
atom 5.3684678276841540 7.6488075000000002 17.5552831248774908 C
atom 11.8365013550144607 12.0476925000000001 4.5704862873804881 C
atom 1.0995656996461520 1.0833075000000001 17.1299200376255101 C
atom 4.8355018650321373 4.2505046999999996 5.0154453842872426 C
atom 8.1005651896284760 8.8804952999999998 16.6849609407187565 C
atom 1.6325316622981709 10.8160047000000006 5.8347577782157574 C
atom 11.3035353923624413 2.3149953000000001 15.8656485467902417 C
atom 5.2326391236102179 3.1553793000000003 5.7507693584649271 C
atom 7.7034279310503955 9.9756207000000003 15.9496369665410729 C
atom 1.2353944037200899 9.7208793000000000 5.0994338040380738 C
atom 11.7006726509405219 3.4101206999999998 16.6009725209679253 C
atom 5.2727409314796656 3.2144688000000001 7.1289656180724448 C
atom 7.6633261231809477 9.9165311999999997 14.5714407069335543 C
atom 1.1952925958506420 9.7799688000000007 3.7212375444305548 C
atom 11.7407744588099696 3.3510312000000000 17.9791687805754457 C
atom 4.9118246606546343 4.3463609999999999 7.7867792816047787 C
atom 8.0242423940059773 8.7846390000000003 13.9136270434012204 C
atom 1.5562088666756733 10.9118610000000000 3.0634238808982226 C
atom 11.3798581879849383 2.2191390000000002 18.6369824441077760 C
atom 4.5224490423093506 5.4480519000000003 7.0835435512220979 C
atom 8.4136180123512627 7.6829480999999999 14.6168627737839021 C
atom 1.9455844850209578 12.0135519000000013 3.7666596112809030 C
atom 10.9904825696396546 1.1174481000000001 17.9337467137250961 C
atom 4.4836408411453688 5.4047196000000000 5.6908328322470787 C
atom 8.4524262135152437 7.7262804000000003 16.0095734927589177 C
atom 1.9843926861849397 11.9702196000000001 5.1593703302559204 C
atom 10.9516743684756719 1.1607804000000002 16.5410359947500787 C
atom 2.2663989479765396 4.2176771999999998 3.7756926881410511 C
atom 10.6696681066840728 8.9133227999999995 17.9247136368649471 C
atom 4.2016345793537679 10.7831772000000008 7.0745104743619498 C
atom 8.7344324753068445 2.3478227999999999 14.6258958506440511 C
atom 1.7903516803650288 3.1855806000000002 4.5740627353808305 C
atom 11.1457153742955839 9.9454194000000005 17.1263435896251686 C
atom 4.6776818469652781 9.7510805999999999 6.2761404271221695 C
atom 8.2583852076953335 3.3799194000000004 15.4242658978838314 C
atom 0.6532713862603614 3.4009290000000001 5.3742530194128033 C
atom 12.2827956684002508 9.7300710000000006 16.3261533055931949 C
atom 5.8147621410699459 9.9664289999999998 5.4759501430901967 C
atom 7.1213049135906665 3.1645710000000000 16.2244561819158015 C
atom 0.0439826279858468 4.6339299000000000 5.3484668815050211 C
atom 12.8920844266747654 8.4970701000000002 16.3519394435009779 C
atom 6.4240508993444605 11.1994299000000002 5.5017362809979788 C
atom 6.5120161553161502 1.9315701000000001 16.1986700440080220 C
atom 0.5239107157137556 5.6489562000000006 4.5947429561627429 C
atom 12.4121563389468577 7.4820437999999996 17.1056633688432562 C
atom 5.9441228116165519 12.2144562000000008 6.2554602063402562 C
atom 6.9919442430440597 0.9165438000000000 15.4449461186657420 C
atom 1.6221828086544414 5.4296685000000000 3.7890389531557522 C
atom 11.3138842460061717 7.7013315000000002 17.9113673718502469 C
atom 4.8458507186758659 11.9951685000000001 7.0611642093472469 C
atom 8.0902163359847457 1.1358314999999999 14.6392421156587513 C
atom 2.0141456404106575 3.7882935000000000 0.9261317648034341 C
atom 10.9219214142499546 9.3427065000000002 20.7742745602025671 C
atom 4.4538878869196497 10.3537935000000001 9.9240713976995654 C
atom 8.4821791677409610 2.7772065000000001 11.7763349273064328 C
atom 1.8149302077688843 4.7324124000000003 -0.0897354926016583 C
atom 11.1211368468917282 8.3985875999999990 21.7901418176076547 C
atom 4.6531033195614233 11.2979124000000013 10.9399386551046582 C
atom 8.2829637350991874 1.8330876000000000 10.7604676699013417 C
atom 0.5678933436996015 4.9910930999999996 23.2431398376677620 C
atom 12.3681737109610097 8.1399068999999997 -1.5427335126617652 C
atom 5.9001401836307057 11.5565931000000006 11.4420633248352370 C
atom 7.0359268710299059 1.5744069000000001 10.2583430001707629 C
atom 12.4056883054195239 4.3082811000000003 21.5781766656807505 C
atom 0.5303787492410865 8.8227189000000017 0.1222296593252464 C
atom 6.9984122765713925 10.8737810999999986 10.9724328218282459 C
atom 5.9376547780892199 2.2572188999999998 10.7279735031777541 C
atom 12.5958484911230357 3.3313346999999998 -1.2942823613416603 C
atom 0.3402185635375756 9.7996652999999991 22.9946886863476578 C
atom 6.8082520908678807 9.8968347000000012 10.0098918488506570 C
atom 6.1278149637927317 3.2341652999999999 11.6905144761553430 C
atom 0.8887078066551843 3.0831588000000001 1.3549584145279123 C
atom 12.0473592480054279 10.0478412000000006 20.3454479104780894 C
atom 5.5793257206751230 9.6486587999999998 9.4952447479750877 C
atom 7.3567413339854895 3.4823412000000000 12.2051615770309105 C
