#=======================================================
# FHI-aims file: pahs_geometry_fix/FLUANT02.in
# Created using the Atomic Simulation Environment (ASE)
# Tue May 25 14:20:52 2021
#=======================================================
lattice_vector -0.0000000000000010 -6.2320000000000002 -0.0000000000000004 
lattice_vector -17.3016058628621821 0.0000000000000000 6.2562639463319476 
lattice_vector 0.0000000000000000 0.0000000000000000 -19.9020000000000010 
atom -8.1957706972378155 -2.0135592000000004 -2.6507619686225570 H
atom -9.1058351656243666 -4.2184408000000007 -10.9949740850454969 H
atom -0.4550322341932760 -5.1295592000000001 -4.1721060582114697 H
atom -16.8465736286689065 -1.1024407999999997 -9.4736299954565837 H
atom -8.6715648584665264 -2.5893959999999994 -4.8968077100984280 H
atom -8.6300410043956575 -3.6426040000000004 -8.7489283435696255 H
atom -17.2808439358267485 -5.7053960000000004 4.3302036295963484 H
atom -0.0207619270354343 -0.5266039999999994 -17.9759396832644036 H
atom -7.8012940835645574 -1.2925168000000002 -6.6245397865989260 H
atom -9.5003117792976237 -4.9394831999999997 -7.0211962670691284 H
atom -0.8495088478665344 -4.4085167999999992 -0.1983282402350988 H
atom -16.4520970149956476 -1.8234831999999999 -13.4474078134329531 H
atom -6.4033243298452938 -5.3775928000000004 -7.3768307134625468 H
atom -10.8982815330168883 -0.8544071999999994 -6.2689053402055075 H
atom -2.2474786015857982 -2.2615928000000003 0.5539626866285197 H
atom -15.0541272612763848 -3.9704071999999999 -14.1996987402965722 H
atom -5.2544977005512443 -3.5204567999999998 -6.6797248394989888 H
atom -12.0471081623109360 -2.7115432000000004 -6.9660112141690647 H
atom -3.3963052308798449 -0.4044567999999997 -0.1431431873350384 H
atom -13.9053006319823353 -5.8275432000000000 -13.5025928663330159 H
atom -4.9188465468117188 -2.9520984000000001 -4.3710621600578285 H
atom -12.3827593160504641 -3.2799016000000001 -9.2746738936102275 H
atom -3.7319563846193735 -6.0680984000000002 -2.4518058667761982 H
atom -13.5696494782428090 -0.1639015999999993 -11.1939301868918530 H
atom -7.4033571487187269 -0.7191727999999997 -0.1987836573645592 H
atom -9.8982487141434561 -5.5128272000000003 -13.4469523963034927 H
atom -1.2474457827123648 -3.8351727999999996 -6.6240843694694673 H
atom -16.0541600801498170 -2.3968272000000006 -7.0216516841985888 H
atom -6.4742609138830289 -5.4286951999999999 1.4096803687174151 H
atom -10.8273449489791549 -0.8033048000000002 -15.0554164223854663 H
atom -2.1765420175480612 -2.3126951999999994 -8.2325483955514436 H
atom -15.1250638453141200 -3.9193048000000004 -5.4131876581166116 H
atom -5.3617676569009900 -3.5036304000000005 0.7845001969682689 H
atom -11.9398382059611912 -2.7283695999999993 -14.4302362506363249 H
atom -3.2890352745300997 -0.3876303999999995 -7.6073682238022968 H
atom -14.0125705883320837 -5.8443696000000003 -6.0383678298657548 H
atom -5.0001640943671717 -2.9284167999999999 -1.5275149195100668 H
atom -12.3014417684950121 -3.3035832000000003 -12.1182211341579862 H
atom -3.6506388370639207 -6.0444168000000005 -5.2953531073239608 H
atom -13.6509670257982627 -0.1875831999999994 -8.3503829463440926 H
atom -16.6043511465888365 -1.7736271999999997 1.2057643092947699 H
atom -0.6972547162733467 -4.4583728000000002 -14.8515003629628222 H
atom -9.3480576477044384 -4.8896271999999996 -1.7723683897968494 H
atom -7.9535482151577455 -1.3423728000000004 -11.8733676638712051 H
atom -15.7133184446514349 -2.3806240000000001 3.3414637160586760 H
atom -1.5882874182107487 -3.8513760000000001 -16.9871997697267290 H
atom -10.2390903496418399 -5.4966240000000006 -3.9080677965607533 H
atom -7.0625155132203430 -0.7353759999999993 -9.7376682571072983 H
atom -14.0869674935423888 -1.0856143999999994 4.3853389051034721 H
atom -3.2146383693197937 -5.1463856000000003 -18.0310749587715264 H
atom -11.8654413007508843 -4.2016144000000004 -4.9519429856055517 H
atom -5.4361645621112986 -2.0303855999999993 -8.6937930680625044 H
atom -12.4813784694687797 -5.2155608000000004 4.2187192108838687 H
atom -4.8202273933934014 -1.0164391999999995 -17.8644552645519248 H
atom -13.4710303248244951 -2.0995607999999999 -4.7853232913859456 H
atom -3.8305755380376887 -4.1324392000000003 -8.8604127622821061 H
atom -11.9467588483063345 -3.3085687999999998 3.0342810549422112 H
atom -5.3548470145558458 -2.9234312000000000 -16.6800171086102651 H
atom -14.0056499459869368 -0.1925687999999996 -3.6008851354442863 H
atom -3.2959559168752466 -6.0394312000000001 -10.0448509182237640 H
atom -12.9364107036620553 -2.7651384000000001 0.9262815526723972 H
atom -4.3651951592001286 -3.4668616000000001 -14.5720176063404505 H
atom -13.0159980906312196 -5.8811384000000002 -1.4928856331744766 H
atom -4.2856077722309616 -0.3508615999999994 -12.1528504204935786 H
atom -17.2064470306164417 -0.4655303999999992 -1.2374151053728768 H
atom -0.0951588322457421 -5.7664696000000006 -12.4083209482951755 H
atom -8.7459617636768350 -3.5815304000000001 0.6708110248707998 H
atom -8.5556440991853506 -2.6504696000000001 -14.3165470785388536 H
atom -0.0882381899005978 -5.1619656000000003 -9.2802388538737084 H
atom -17.2133676729615850 -1.0700343999999997 -4.3654971997943468 H
atom -8.5625647415304940 -2.0459656000000002 2.4573708270396803 H
atom -8.7390411213316881 -4.1860343999999996 -16.1031068807077347 H
atom -16.0853029707029691 -3.2456255999999999 -3.0877062090951894 H
atom -1.2163028921592123 -2.9863743999999999 -10.5580298445728644 H
atom -9.8671058235903022 -0.1296256000000003 2.5211021285931103 H
atom -7.4345000392718799 -6.1023743999999995 -16.1668381822611629 H
atom -14.5541108518396669 -2.7695008000000003 -1.3446947683455657 H
atom -2.7474950110225160 -3.4624991999999994 -12.3010412853224853 H
atom -11.3982979424536079 -5.8855008000000000 0.7780906878434883 H
atom -5.9033079204085741 -0.3464991999999999 -14.4238267415115402 H
atom -7.1421029001895056 -0.2804400000000002 -3.0437096429541701 C
atom -10.1595029626726738 -5.9515599999999997 -10.6020264107138829 C
atom -1.5087000312415837 -3.3964399999999997 -3.7791583838798530 C
atom -15.7929058316206010 -2.8355599999999992 -9.8665776697881977 C
atom -7.8566592223257166 -1.4208959999999993 -3.3386015419706632 C
atom -9.4449466405364664 -4.8111040000000003 -10.3071345116973898 C
atom -0.7941437091053739 -4.5368959999999996 -3.4842664848633622 C
atom -16.5074621537568085 -1.6951040000000002 -10.1614695688046908 C
atom -8.1023420255783609 -1.7761200000000001 -4.6747457939327486 C
atom -9.1992638372838247 -4.4558800000000005 -8.9709902597353040 C
atom -0.5484609058527330 -4.8921200000000002 -2.1481222329012772 C
atom -16.7531449570094537 -1.3398800000000000 -11.4976138207667766 C
atom -7.6282780249359359 -1.0282800000000003 -5.7158848260622444 C
atom -9.6733278379262462 -5.2037199999999997 -7.9298512276058100 C
atom -1.0225249064951583 -4.1442800000000002 -1.1069832007717821 C
atom -16.2790809563670251 -2.0877200000000000 -12.5387528528962715 C
atom -6.3098956581858392 -5.2099520000000004 -6.4155145387727401 C
atom -10.9917102046763446 -1.0220479999999996 -7.2302215148953133 C
atom -2.3409072732452532 -2.0939519999999994 -0.4073534880612867 C
atom -14.9606985896169302 -4.1380479999999995 -13.2383825656067664 C
atom -5.6385933507067856 -4.1006559999999999 -6.0134327798904179 C
atom -11.6630125121553956 -2.1313439999999990 -7.6323032737776337 C
atom -3.0122095807243068 -0.9846559999999995 -0.8094352469436086 C
atom -14.2893962821378757 -5.2473440000000000 -12.8363008067244451 C
atom -5.4413550438701570 -3.7828240000000002 -4.6478297888786040 C
atom -11.8602508189920268 -2.4491759999999996 -8.9979062647894494 C
atom -3.2094478875609331 -0.6668240000000000 -2.1750382379554241 C
atom -14.0921579753012480 -5.5651760000000001 -11.4706978157126311 C
atom -5.9690540226874527 -4.6116799999999998 -3.7126789385154795 C
atom -11.3325518401747303 -1.6203200000000002 -9.9330571151525735 C
atom -2.6817489087436388 -1.4956799999999999 -3.1101890883185499 C
atom -14.6198569541185446 -4.7363200000000001 -10.5355469653495071 C
atom -6.6645785783745133 -5.7646000000000006 -4.1278941278729322 C
atom -10.6370272844876705 -0.4673999999999990 -9.5178419257951195 C
atom -1.9862243530565791 -2.6486000000000005 -2.6949738989610923 C
atom -15.3153815098056043 -3.5833999999999997 -10.9507621547069611 C
atom -6.8791184910740037 -6.0886639999999996 -5.4733094549384189 C
atom -10.4224873717881792 -0.1433360000000001 -8.1724265987296345 C
atom -1.7716844403570888 -2.9726640000000000 -1.3495585718956082 C
atom -15.5299214225050939 -3.2593359999999993 -12.2961774817724461 C
atom -6.7009119506865238 -5.8144560000000007 -1.8459279735856380 C
atom -10.6006939121756592 -0.4175439999999990 -11.7998080800824159 C
atom -1.9498909807445688 -2.6984560000000006 -4.9769400532483896 C
atom -15.3517148821176139 -3.5335439999999996 -8.6687960004196647 C
atom -6.8964200969368656 -6.1073599999999999 -0.4955335909920864 C
atom -10.4051857659253155 -0.1246400000000001 -13.1502024626759688 C
atom -1.7543828344942265 -2.9913599999999994 -6.3273344358419408 C
atom -15.5472230283679558 -3.2406400000000004 -7.3184016178261126 C
atom -6.3756417604647160 -5.2286479999999997 0.4386256642233226 C
atom -10.9259641023974670 -1.0033520000000002 -14.0843617178913760 C
atom -2.2751611709663764 -2.1126480000000001 -7.2614936910573498 C
atom -15.0264446918958061 -4.1193520000000001 -6.3842423626107037 C
atom -5.7026092923993756 -4.1068880000000005 0.0579331967110095 C
atom -11.5989965704628073 -2.1251119999999992 -13.7036692503790629 C
atom -2.9481936390317158 -0.9908879999999995 -6.8808012235450384 C
atom -14.3534122238304676 -5.2411120000000002 -6.7649348301230177 C
atom -5.5105614673216055 -3.7828240000000002 -1.2951903330932752 C
atom -11.7910443955405775 -2.4491759999999996 -12.3505457205747788 C
atom -3.1402414641094842 -0.6668240000000000 -5.5276776937407526 C
atom -14.1613643987526974 -5.5651760000000001 -8.1180583599273017 C
atom -6.0174985191034676 -4.6553040000000001 -2.2383349994657489 C
atom -11.2841073437587163 -1.5766960000000001 -11.4074010542023050 C
atom -2.6333044123276244 -1.5393040000000000 -4.5845330273682778 C
atom -14.6683014505345586 -4.6926959999999998 -9.0612030262997756 C
atom -15.4832070866753675 -0.0934800000000001 1.0252510055724600 C
atom -1.8183987761868159 -6.1385199999999998 -14.6709870592405132 C
atom -10.4692017076179056 -3.2094799999999997 -1.5918550860745391 C
atom -6.8324041552442765 -3.0225200000000001 -12.0538809675935141 C
atom -15.9382393208686430 -1.2152399999999990 1.6296249473609901 C
atom -1.3633665419935403 -5.0167599999999997 -15.2753610010290437 C
atom -10.0141694734246318 -4.3312400000000002 -2.1962290278630694 C
atom -7.2874363894375520 -1.9007599999999998 -11.4495070258049836 C
atom -15.4105403420513465 -1.5766960000000001 2.8956352969978667 C
atom -1.8910655208108365 -4.6553040000000001 -16.5413713506659192 C
atom -10.5418684522419266 -4.6926959999999998 -3.4622393774999463 C
atom -6.7597374106202555 -1.5393040000000000 -10.1834966761681098 C
atom -14.4381900925584912 -0.8288559999999994 3.5212214632140117 C
atom -2.8634157703036918 -5.4031440000000002 -17.1669575168820643 C
atom -11.5142187017347819 -3.9448560000000001 -4.0878255437160895 C
atom -5.7873871611274010 -2.2871440000000001 -9.5579105099519630 C
atom -12.9485218277660579 -4.9918319999999996 3.3865677374348304 C
atom -4.3530840350961260 -1.2401679999999990 -17.0323037911028834 C
atom -13.0038869665272170 -1.8758319999999997 -3.9531718179369078 C
atom -4.2977188963349660 -4.3561680000000003 -9.6925642357311439 C
atom -12.5972992287499554 -3.8950000000000000 2.6724565793242898 C
atom -4.7043066341122284 -2.3370000000000002 -16.3181926329923463 C
atom -13.3551095655433194 -0.7789999999999994 -3.2390606598263694 C
atom -3.9464962973188640 -5.4530000000000003 -10.4066753938416845 C
atom -13.2028554339501323 -3.5833999999999997 1.4246484174459089 C
atom -4.0987504289120515 -2.6486000000000005 -15.0703844711139627 C
atom -12.7495533603431426 -0.4673999999999990 -1.9912524979479862 C
atom -4.5520525025190413 -5.7646000000000006 -11.6544835557200663 C
atom -14.1561739169938381 -4.4309519999999996 0.9434355608888015 C
atom -3.1454319458683444 -1.8010480000000002 -14.5891716145568537 C
atom -11.7962348772994350 -1.3149519999999999 -1.5100396413908788 C
atom -5.5053709855627480 -4.9170480000000003 -12.1356964122771753 C
atom -14.4970155524922237 -5.5651760000000001 1.6657341606315392 C
atom -2.8045903103699583 -0.6668240000000000 -15.3114702142995931 C
atom -11.4553932418010511 -2.4491759999999996 -2.2323382411336188 C
atom -5.8462126210611318 -3.7828240000000002 -11.4133978125344377 C
atom -13.9537451283983511 -5.8830080000000002 2.9221334727167148 C
atom -3.3478607344638305 -0.3489919999999996 -16.5678695263847722 C
atom -11.9986636658949237 -2.7670079999999992 -3.4887375532187943 C
atom -5.3029421969672592 -3.4649919999999996 -10.1569985004492587 C
atom -15.7877153498617417 -5.6025680000000007 -0.2279257489720987 C
atom -1.5138905130004394 -0.6294319999999992 -13.4178103046959549 C
atom -10.1646934444315331 -2.4865679999999997 -0.3386783315299787 C
atom -7.1369124184306507 -3.7454320000000001 -13.3070577221380724 C
atom -16.6597162853499974 -5.8892400000000000 -1.2460440460769679 C
atom -0.6418895775121873 -0.3427599999999996 -12.3996920075910868 C
atom -9.2926925089432793 -2.7732399999999999 0.6794399655748881 C
atom -8.0089133539189046 -3.4587599999999998 -14.3251760192429440 C
atom -16.7583354387683094 -4.9918319999999996 -2.3069835415828766 C
atom -0.5432704240938724 -1.2401679999999990 -11.3387525120851791 C
atom -9.1940733555249654 -1.8758319999999997 1.7403794610807972 C
atom -8.1075325073372202 -4.3561680000000003 -15.3861155147488500 C
atom -15.9987949413886597 -3.8451439999999999 -2.3527605288268494 C
atom -1.3028109214735233 -2.3868560000000003 -11.2929755248412036 C
atom -9.9536138529046116 -0.7291439999999992 1.7861564483247698 C
atom -7.3479920099575686 -5.5028560000000004 -15.4318925019928237 C
atom -15.0973812759335413 -3.5584719999999996 -1.3233856804307405 C
atom -2.2042245869286416 -2.6735280000000006 -12.3223503732373114 C
atom -10.8550275183597318 -0.4424719999999990 0.7567815999286636 C
atom -6.4465783445024503 -5.7895280000000007 -14.4025176535967177 C
atom -14.9970319619289398 -4.4309519999999996 -0.2531208113194687 C
atom -2.3045739009332427 -1.8010480000000002 -13.3926152423485849 C
atom -10.9553768323643332 -1.3149519999999999 -0.3134832691826108 C
atom -6.3462290304978497 -4.9170480000000003 -13.3322527844854424 C
