#=======================================================
# FHI-aims file: pahs_geometry_fix/BIFUOR.in
# Created using the Atomic Simulation Environment (ASE)
# Tue May 25 14:20:52 2021
#=======================================================
lattice_vector -0.0000000000000000 -0.0000000000000000 5.6820000000000004 
lattice_vector 17.5804461527361120 -0.0000000000000000 -0.4419378584665316 
lattice_vector 0.0000000000000029 17.7639999999999993 0.0000000000000011 
atom 10.5711222716402258 13.5734724000000000 3.3423327657040756 H
atom 7.0093238810958889 4.1905276000000002 1.8977293758293943 H
atom 15.7995469574639440 4.6914723999999985 4.5177604465961281 H
atom 1.7808991952721700 13.0725275999999990 0.7223016949373411 H
atom 8.4333400194675150 12.4987504000000005 3.3335704092936052 H
atom 9.1471061332685988 5.2652495999999998 1.9064917322398636 H
atom 0.3568830569005436 3.6167503999999999 4.9684606614731299 H
atom 17.2235630958355763 14.1472495999999968 0.2716014800603399 H
atom 10.1949007239716725 10.7187976000000003 4.0563582358752601 H
atom 7.3855454287644413 7.0452024000000000 1.1837039056582106 H
atom 16.1757685051324955 1.8367976000000001 3.8037349764249444 H
atom 1.4046776476036182 15.9272023999999988 1.4363271651085252 H
atom 11.4132256423562861 8.6848195999999991 3.5086699422835288 H
atom 6.1672205103798294 9.0791804000000003 1.7313921992499417 H
atom 14.9574435867478890 17.5668195999999988 4.3514232700166762 H
atom 2.6230025659882279 0.1971804000000000 0.8886388715167935 H
atom 12.8319676468820898 8.5906703999999987 1.5524895571052792 H
atom 4.7484785058540258 9.1733295999999989 3.6875725844281906 H
atom 13.5387015822220853 17.4726703999999984 0.6256036551949252 H
atom 4.0417445705140320 0.2913296000000000 4.6144584863385445 H
atom 13.0569973576371119 10.5180643999999983 0.1320147525169076 H
atom 4.5234487950990019 7.2459355999999993 5.1080473890165621 H
atom 13.3136718714670579 1.6360644000000000 2.0460784597832959 H
atom 4.2667742812690568 16.1279356000000007 3.1939836817501734 H
atom 10.0859019578247082 15.8135127999999998 1.4340142505977518 H
atom 7.4945441949114047 1.9504871999999995 3.8060478909357176 H
atom 16.2847672712794562 6.9315127999999984 0.7440789617024522 H
atom 1.2956788814566536 10.8324871999999992 4.4959831798310175 H
atom 11.3657584377439012 16.6199984000000001 5.2315091745013875 H
atom 6.2146877149922153 1.1440016000000000 0.0085529670320812 H
atom 15.0049107913602739 7.7379983999999995 2.6285840377988161 H
atom 2.5755353613758425 10.0260016000000007 2.6114781037346537 H
atom 12.8864670299555719 15.2166423999999996 4.0796095497440330 H
atom 4.6939791227805419 2.5473575999999998 1.1604525917894364 H
atom 13.4842021991485996 6.3346423999999990 3.7804836625561711 H
atom 4.0962439535875159 11.4293575999999995 1.4595784789772992 H
atom 13.1572059007077069 12.8842291999999983 4.7262337067236491 H
atom 4.4232402520284069 4.8797708000000002 0.5138284348098210 H
atom 13.2134633283964629 4.0022291999999995 3.1338595055765546 H
atom 4.3669828243396509 13.7617708000000007 2.1062026359569144 H
atom 8.7937391655986055 10.5074059999999996 1.1767146831950419 H
atom 8.7867069871375101 7.2565939999999980 4.0633474583384279 H
atom 17.5769300635055643 1.6254059999999999 1.0013785291051618 H
atom 0.0035160892305498 16.1385939999999977 4.2386836124283072 H
atom 7.3996097856866312 9.8803368000000003 4.9618803553714379 H
atom 10.1808363670494835 7.8836631999999991 0.2781817861620321 H
atom 1.3906132906814268 0.9983367999999998 3.3401507153952972 H
atom 16.1898328620546934 16.7656631999999988 1.8999114261381724 H
atom 5.8173696319403820 11.4524508000000012 4.0584427626334252 H
atom 11.7630765207957353 6.3115492000000000 1.1816193789000444 H
atom 2.9728534444276771 2.5704507999999997 4.2435883081333090 H
atom 14.6075927083084363 15.1935491999999961 0.9964738334001596 H
atom 5.6714519288726715 13.6978203999999995 4.9769128468586983 H
atom 11.9089942238634414 4.0661795999999999 0.2631492946747717 H
atom 3.1187711474953872 4.8158203999999998 3.3251182239080377 H
atom 14.4616750052407284 12.9481795999999996 1.9149439176254324 H
atom 8.9044959763608418 15.2415119999999966 4.3388044746867029 H
atom 8.6759501763752720 2.5224879999999996 0.9012576668467669 H
atom 17.4661732527433244 6.3595119999999996 3.5212887376135016 H
atom 0.1142728999927866 11.4044880000000006 1.7187734039199682 H
atom 7.7178158610511547 17.3518751999999985 4.0845352801331929 H
atom 9.8626302916849600 0.4121248000000000 1.1555268614002758 H
atom 1.0724072153169042 8.4698752000000006 4.2174957906335422 H
atom 16.5080389374192080 9.2941247999999970 1.0225663508999274 H
atom 6.3096221242169932 17.7266955999999993 2.1880545025963625 H
atom 11.2708240285191206 0.0373044000000000 3.0520076389371065 H
atom 2.4806009521510668 8.8446955999999997 0.4319765681703729 H
atom 15.0998452005850492 8.9193043999999997 4.8080855733630967 H
atom 5.8912075057818738 15.9698359999999973 0.5962486236278663 H
atom 11.6892386469542409 1.7941640000000001 4.6438135179056026 H
atom 2.8990155705861866 7.0878360000000002 2.0237824471388697 H
atom 14.6814305821499289 10.6761640000000000 3.2162796943946002 H
atom 10.2578387211984676 13.1190692799999962 2.4797256983419493 C
atom 7.3226074315376461 4.6449307199999996 2.7603364431915205 C
atom 16.1128305079057021 4.2370692800000000 -0.3016324860417453 C
atom 1.4676156448304127 13.5269307200000011 5.5416946275752155 C
atom 8.7184948560648952 13.0430393599999999 2.5116033772292785 C
atom 8.8619512966712186 4.7209606399999995 2.7284587643041904 C
atom 0.0717282203031640 4.1610393600000002 0.1084276935374568 C
atom 17.5087179324329512 13.6029606399999992 5.1316344479960128 C
atom 11.7692296769491911 11.7187331599999993 1.2820361006495813 C
atom 5.8112164757869227 6.0452668400000000 3.9580260408838894 C
atom 14.6014395521549787 2.8367331600000001 0.8960571116506224 C
atom 2.9790066005811364 14.9272668399999997 4.3440050298828465 C
atom 10.9299391776175696 11.7658077599999977 2.3866916140127734 C
atom 6.6505069751185450 5.9981922399999998 2.8533705275206960 C
atom 15.4407300514866002 2.8838077600000003 -0.2085984017125699 C
atom 2.1397161012495145 14.8801922399999995 5.4486605432460395 C
atom 10.7952729600876118 10.6672820000000002 3.2145350580086274 C
atom 6.7851731926485037 7.0967180000000001 2.0255270835248429 C
atom 15.5753962690165579 1.7852820000000000 4.6455581542915763 C
atom 2.0050498837195563 15.9787179999999989 0.5945039872418932 C
atom 11.5035891355813504 9.5092468399999994 2.9001289816910107 C
atom 6.0768570171547660 8.2547531599999999 2.3399331598424591 C
atom 14.8670800935228193 0.6272468400000000 4.9599642306091933 C
atom 2.7133660592132944 17.1367531600000014 0.2800979109242766 C
atom 12.3198492504528865 9.4536455200000002 1.7971888069224098 C
atom 5.2605969022832282 8.3103544799999991 3.4428733346110603 C
atom 14.0508199786512833 0.5716455200000000 0.3809044053777941 C
atom 3.5296261740848314 17.1923544799999988 4.8591577361556757 C
atom 12.4669975847512884 10.5534147599999972 0.9724407870470445 C
atom 5.1134485679848263 7.2105852399999995 4.2676213544864243 C
atom 13.9036716443528814 1.6714147599999998 1.2056524252531589 C
atom 3.6767745083832328 16.0925852399999982 4.0344097162803108 C
atom 11.7643071520264240 13.0250977199999998 0.6241842432499517 C
atom 5.8161390007096889 4.7389022799999987 4.6158778982835180 C
atom 14.6063620770777440 4.1430977200000001 1.5539089690502519 C
atom 2.9740840756583706 13.6209022799999993 3.6861531724832184 C
atom 10.8743849677749242 13.8605386399999961 1.3102127376455277 C
atom 6.7060611849611913 3.9034613599999997 3.9298494038879417 C
atom 15.4962842613292455 4.9785386400000000 0.8678804746546761 C
atom 2.0841618914068687 12.7854613600000011 4.3721816668787934 C
atom 10.7281156557841602 15.1812920399999989 0.9189906606279693 C
atom 6.8523304969519545 2.5827079599999996 4.3210714809055002 C
atom 15.6425535733200114 6.2992920399999992 1.2591025516722347 C
atom 1.9378925794161030 11.4647079600000001 3.9809595898612353 C
atom 11.4664943941990760 15.6538144399999979 -0.1518771294276250 C
atom 6.1139517585370378 2.1101855600000001 5.3919392709610934 C
atom 14.9041748349050955 6.7718144400000000 2.3299703417278290 C
atom 2.6762713178310196 10.9921855599999994 2.9100917998056408 C
atom 12.3546585338353037 14.8308083199999992 4.8589117699626465 C
atom 5.2257876189008110 2.9331916799999997 0.3811503715708237 C
atom 14.0160106952688697 5.9488083200000004 3.0011814423375580 C
atom 3.5644354574672481 11.8151916799999999 2.2388806991959114 C
atom 12.5130583536714557 13.5038375199999994 5.2367603098578623 C
atom 5.0673877990646581 4.2601624800000000 0.0033018316756072 C
atom 13.8576108754327141 4.6218375200000006 2.6233329024423422 C
atom 3.7228352773034019 13.1421624799999996 2.6167292390911281 C
atom 7.1327386130880974 13.3652783199999998 0.7536813720629597 C
atom 10.4477075396480164 4.3987216799999995 4.4863807694705091 C
atom 1.6574844632799615 4.4832783200000002 1.8663496987037758 C
atom 15.9229616894561534 13.2807216799999992 3.3737124428296941 C
atom 8.0340880873388780 12.4459913199999992 1.2952458180593807 C
atom 9.5463580653972357 5.3180086800000002 3.9448163234740901 C
atom 0.7561349890291807 3.5639913200000000 1.3247852527073547 C
atom 16.8243111637069340 14.2000086799999998 3.9152768888261145 C
atom 8.1358788705632197 11.1700032000000000 0.7636927978588592 C
atom 9.4445672821728959 6.5939967999999993 4.4763693436746106 C
atom 0.6543442058048383 2.2880031999999999 1.8563382729078759 C
atom 16.9261019469312757 15.4759967999999990 3.3837238686255935 C
atom 7.3190913423071002 10.8244933999999962 5.3678946307632147 C
atom 10.2613548104290153 6.9395065999999996 -0.1278324892297447 C
atom 1.4711317340609582 1.9424934000000000 2.9341364400035213 C
atom 16.1093144186751616 15.8215066000000011 2.3059257015299490 C
atom 6.4198515215946479 11.7380959200000010 4.8450277522237775 C
atom 11.1605946311414694 6.0259040800000001 0.3950343893096922 C
atom 2.3703715547734103 2.8560959200000000 3.4570033185429576 C
atom 15.2100745979627039 14.9079040799999962 1.7830588229905120 C
atom 6.3215768276008530 13.0126629200000004 5.3679693848526062 C
atom 11.2588693251352598 4.7513370799999999 -0.1279072433191359 C
atom 2.4686462487672052 4.1306629199999998 2.9340616859141302 C
atom 15.1117999039689099 13.6333370799999987 2.3060004556193396 C
atom 7.1849525381617250 14.6023632799999987 1.5376212166233141 C
atom 10.3954936145743897 3.1616367199999997 3.7024409249101553 C
atom 1.6052705382063350 5.7203632799999991 1.0824098541434215 C
atom 15.9751756145297801 12.0436367200000003 4.1576522873900492 C
atom 8.0725892644133701 14.4098015200000003 2.5971605741493389 C
atom 9.5078568883227437 3.3541984799999995 2.6429015673841305 C
atom 0.7176338119546890 5.5278015199999997 0.0228704966173965 C
atom 16.8628123407814314 12.2361984799999988 5.2171916449160731 C
atom 8.2731821550160873 15.4074277599999991 3.5347618631842357 C
atom 9.3072639977200264 2.3565722399999998 1.7053002783492337 C
atom 0.5170409213519700 6.5254277599999995 4.7672692075825003 C
atom 17.0634052313841487 11.2385722399999999 0.4727929339509698 C
atom 7.6093445082887738 16.6111164000000002 3.3804212367199327 C
atom 9.9711016444473390 1.1528836000000000 1.8596409048135374 C
atom 1.1808785680792862 7.7291163999999997 4.9216098340468033 C
atom 16.3995675846568254 10.0348835999999988 0.3184523074866660 C
atom 6.7584509144963461 16.8132707199999984 2.3154126290697121 C
atom 10.8219952382397668 0.9507292799999999 2.9246495124637577 C
atom 2.0317721618717139 7.9312707199999997 0.3046184416970235 C
atom 15.5486739908644029 9.8327292800000006 4.9354436998364468 C
atom 6.5260374163571733 15.8190196400000005 1.3842932475586400 C
atom 11.0544087363789387 1.9449803600000000 3.8557688939748296 C
atom 2.2641856600108854 6.9370196399999999 1.2357378232080960 C
atom 15.3162604927252310 10.8269803599999985 4.0043243183253745 C
