#=======================================================
# FHI-aims file: pahs_geometry_fix/IZUCIP.in
# Created using the Atomic Simulation Environment (ASE)
# Tue May 25 14:20:52 2021
#=======================================================
lattice_vector 0.0000000000000016 9.7970000000000006 0.0000000000000006 
lattice_vector -0.0000000000000000 -0.0000000000000000 13.7896999999999998 
lattice_vector 14.9407342211885243 -0.0000000000000000 -1.4620558613836157 
atom 9.4843780836104781 4.2185882000000001 11.9514667391936822 H
atom 5.4563561375780516 5.5784118000000005 0.3761773994227041 H
atom 5.4563561375780516 9.1170881999999995 7.2710273994227030 H
atom 9.4843780836104781 0.6799118000000001 5.0566167391936814 H
atom 5.8119456120423365 2.7098502000000004 12.6445508099217765 H
atom 9.1287886091461896 7.0871498000000006 -0.3169066713053887 H
atom 9.1287886091461896 7.6083502000000003 6.5779433286946105 H
atom 5.8119456120423374 2.1886497999999999 5.7497008099217739 H
atom 4.5942757730154717 1.4695500000000004 -0.0869130673754617 H
atom 10.3464584481730544 8.3274500000000007 12.4145572059918479 H
atom 10.3464584481730544 6.3680500000000002 5.5197072059918471 H
atom 4.5942757730154717 3.4289499999999999 6.8079369326245374 H
atom 12.1423347015599159 9.4658613999999996 2.1254521114535367 H
atom 2.7983995196286111 0.3311386000000000 10.2021920271628499 H
atom 2.7983995196286116 4.5673614000000002 3.3073420271628486 H
atom 12.1423347015599141 5.2296386000000021 9.0203021114535371 H
atom 8.4743844502581354 8.0403979000000003 3.0015005754232140 H
atom 6.4663497709303943 1.7566021000000001 9.3261435631931722 H
atom 6.4663497709303943 3.1418979000000000 2.4312935631931718 H
atom 8.4743844502581336 6.6551021000000006 9.8963505754232148 H
atom 7.2044220414571072 4.1627453000000001 11.4961232236408204 H
atom 7.7363121797314189 5.6342546999999996 0.8315209149755640 H
atom 7.7363121797314198 9.0612453000000013 7.7263709149755648 H
atom 7.2044220414571072 0.7357547000000002 4.6012732236408214 H
atom 13.2345023731287963 9.7832842000000007 -0.4346118020136061 H
atom 1.7062318480597294 0.0137158000000000 12.7622559406299931 H
atom 1.7062318480597305 4.8847842000000004 5.8674059406299923 H
atom 13.2345023731287963 4.9122158000000002 6.4602381979863939 H
atom 13.1911742438873496 3.2281115000000002 1.9717938999844062 H
atom 1.7495599773011774 6.5688884999999999 10.3558502386319802 H
atom 1.7495599773011776 8.1266115000000010 3.4610002386319794 H
atom 13.1911742438873478 1.6703885000000003 8.8666438999844086 H
atom 10.7842219608538805 7.9502655000000004 3.2374216892533076 H
atom 4.1565122603346474 1.8467345000000002 9.0902224493630772 H
atom 4.1565122603346483 3.0517655000000001 2.1953724493630786 H
atom 10.7842219608538787 6.7452345000000005 10.1322716892533062 H
atom 6.4738201380409883 8.1912716999999997 2.8621801452624798 H
atom 8.4669140831475360 1.6057283000000000 9.4654639933539055 H
atom 8.4669140831475378 3.2927717000000003 2.5706139933539052 H
atom 6.4738201380409892 6.5042283000000021 9.7570301452624815 H
atom 4.1789233616664312 8.2363379000000005 2.5365428955710034 H
atom 10.7618108595220967 1.5606621000000001 9.7911012430453805 H
atom 10.7618108595220967 3.3378379000000002 2.8962512430453815 H
atom 4.1789233616664312 6.4591621000000004 9.4313928955710029 H
atom 0.5348782851185496 2.9753489000000011 3.8032585201624669 H
atom 14.4058559360699778 6.8216511000000004 8.5243856184539197 H
atom 14.4058559360699778 7.8738489000000014 1.6295356184539189 H
atom 0.5348782851185495 1.9231511000000001 10.6981085201624673 H
atom 0.5901590017369482 9.5638313999999998 1.3653458334753477 H
atom 14.3505752194515797 0.2331686000000000 10.9622983051410383 H
atom 14.3505752194515797 4.6653314000000004 4.0674483051410375 H
atom 0.5901590017369476 5.1316686000000020 8.2601958334753487 H
atom 1.7092199949039677 1.2422596000000001 2.7823576394577150 H
atom 13.2315142262845615 8.5547404000000000 9.5452864991586708 H
atom 13.2315142262845598 6.1407596000000009 2.6504364991586709 H
atom 1.7092199949039679 3.6562404000000006 9.6772076394577162 H
atom 3.2421393259979117 9.7862233000000014 1.0589459380797559 H
atom 11.6985948951906167 0.0107767000000000 11.2686982005366296 H
atom 11.6985948951906167 4.8877233000000002 4.3738482005366288 H
atom 3.2421393259979108 4.9092767000000004 7.9537959380797556 H
atom 10.9410996701763548 5.2022070000000005 0.6034060727087788 H
atom 3.9996345510121687 4.5947930000000001 11.7242380659076062 H
atom 3.9996345510121678 0.3037070000000000 4.8293880659076063 H
atom 10.9410996701763565 9.4932929999999995 7.4982560727087773 H
atom 12.7489285109401695 2.8881556000000002 11.6099440134813605 H
atom 2.1918057102483579 6.9088444000000022 0.7177001251350240 H
atom 2.1918057102483584 7.7866555999999996 7.6125501251350238 H
atom 12.7489285109401695 2.0103444000000001 4.7150940134813615 H
atom 12.2304850334649284 7.0234693000000004 -0.0798732281286273 H
atom 2.7102491877235995 2.7735307000000002 12.4075173667450134 H
atom 2.7102491877235990 2.1249693000000001 5.5126673667450126 H
atom 12.2304850334649284 7.6720307000000005 6.8149767718713719 H
atom 14.0173968463190750 4.7133367000000002 10.9231957108498925 H
atom 0.9233373748694517 5.0836633000000004 1.4044484277664930 H
atom 0.9233373748694523 9.6118366999999996 8.2992984277664963 H
atom 14.0173968463190732 0.1851633000000000 4.0283457108498917 H
atom 13.7723688050915829 6.7775645999999998 11.9800219569765858 H
atom 1.1683654160969434 3.0194353999999999 0.3476221816398014 H
atom 1.1683654160969432 1.8790646000000004 7.2424721816398021 H
atom 13.7723688050915847 7.9179354000000020 5.0851719569765850 H
atom 9.2347184147744148 0.7640680300000001 1.0435614296374010 C
atom 5.7060158064141113 9.0329319699999999 11.2840827089789855 C
atom 5.7060158064141104 5.6625680300000001 4.3892327089789847 C
atom 9.2347184147744166 4.1344319700000005 7.9384114296374015 C
atom 8.6541214829390292 1.7523893900000000 0.1778459904107686 C
atom 6.2866127382494961 8.0446106100000012 12.1497981482056172 C
atom 6.2866127382494970 6.6508893900000015 5.2549481482056164 C
atom 8.6541214829390292 3.1461106100000005 7.0726959904107680 C
atom 11.4812072122723237 1.7050698800000001 0.5447610793197606 C
atom 3.4595270089162047 8.0919301200000007 11.7828830592966245 C
atom 3.4595270089162038 6.6035698800000002 4.8880330592966255 C
atom 11.4812072122723237 3.1934301200000004 7.4396110793197625 C
atom 10.6497553528631794 0.7086170100000001 1.1937085400057588 C
atom 4.2909788683253458 9.0883829900000013 11.1339355986106288 C
atom 4.2909788683253449 5.6071170100000005 4.2390855986106262 C
atom 10.6497553528631812 4.1898829900000001 8.0885585400057582 C
atom 8.4132768472934725 9.6311367900000011 1.7340015888962730 C
atom 6.5274573738950554 0.1658632100000000 10.5936425497201121 C
atom 6.5274573738950563 4.7326367899999999 3.6987925497201126 C
atom 8.4132768472934725 5.0643632100000007 8.6288515888962749 C
atom 9.4896073405878933 2.7029923000000000 -0.4651529633578035 C
atom 5.4511268806006354 7.0940076999999997 12.7927971019741893 C
atom 5.4511268806006354 7.6014923000000021 5.8979471019741894 C
atom 9.4896073405878933 2.1955077000000003 6.4296970366421968 C
atom 7.2484972074096135 1.7720813600000003 -0.0549951361502611 C
atom 7.6922370137789136 8.0249186399999992 12.3826392747666478 C
atom 7.6922370137789136 6.6705813600000008 5.4877892747666470 C
atom 7.2484972074096135 3.1264186400000002 6.8398548638497410 C
atom 10.9182403468179405 2.7043638800000003 -0.1963659338233048 C
atom 4.0224938743705883 7.0926361200000008 12.5240100724396903 C
atom 4.0224938743705883 7.6028638800000001 5.6291600724396904 C
atom 10.9182403468179405 2.1941361200000000 6.6984840661766958 C
atom 6.3895543970334838 0.8346064300000002 0.6702795053206830 C
atom 8.5511798241550405 8.9623935700000015 11.6573646332957033 C
atom 8.5511798241550405 5.7331064300000003 4.7625146332957025 C
atom 6.3895543970334847 4.0638935700000003 7.5651295053206837 C
atom 12.9658679718318268 1.6191501900000000 0.7486317923740708 C
atom 1.9748662493567009 8.1778498099999997 11.5790123462423153 C
atom 1.9748662493567000 6.5176501900000003 4.6841623462423145 C
atom 12.9658679718318268 3.2793498100000003 7.6434817923740717 C
atom 6.9546129652788364 9.6936416500000018 1.5613716636431549 C
atom 7.9861212559096897 0.1033583500000000 10.7662724749732313 C
atom 7.9861212559096924 4.7951416500000006 3.8714224749732300 C
atom 6.9546129652788364 5.0018583500000000 8.4562216636431540 C
atom 8.9281345485556294 3.5936375700000003 12.4016634689129948 C
atom 6.0125996726328994 6.2033624300000003 -0.0740193302966081 C
atom 6.0125996726328994 8.4921375700000006 6.8208306697033940 C
atom 8.9281345485556294 1.3048624300000000 5.5068134689129939 C
atom 6.7457415008666191 2.6889825900000002 12.8147629275852992 C
atom 8.1949927203219080 7.1080174100000004 -0.4871187889689128 C
atom 8.1949927203219080 7.5874825900000005 6.4077312110310887 C
atom 6.7457415008666199 2.2095174100000001 5.9199129275852984 C
atom 4.9884123417704256 0.8429338800000001 0.5076030260012385 C
atom 9.9523218794181041 8.9540661200000002 11.8200411126151472 C
atom 9.9523218794181023 5.7414338800000007 4.9251911126151464 C
atom 4.9884123417704265 4.0555661199999999 7.4024530260012398 C
atom 11.1994249648607092 9.5159240700000005 2.0199781588654560 C
atom 3.7413092563278187 0.2810759300000000 10.3076659797509294 C
atom 3.7413092563278196 4.6174240700000002 3.4128159797509290 C
atom 11.1994249648607056 5.1795759300000004 8.9148281588654577 C
atom 9.0171813245139116 8.6700510900000012 2.5396573779791467 C
atom 5.9235528966746154 1.1269489100000001 9.7879867606372368 C
atom 5.9235528966746154 3.7715510900000000 2.8931367606372382 C
atom 9.0171813245139116 6.0254489099999997 9.4345073779791466 C
atom 7.5722629179827710 3.5701247700000009 12.1416143823335574 C
atom 7.3684713032057587 6.2268752300000001 0.1860297562828288 C
atom 7.3684713032057587 8.4686247699999999 7.0808797562828278 C
atom 7.5722629179827692 1.3283752300000000 5.2467643823335557 C
atom 13.6858619539508997 0.5998703100000000 0.1338958614139941 C
atom 1.2548722672376258 9.1971296900000006 12.1937482772023920 C
atom 1.2548722672376249 5.4983703100000003 5.2988982772023903 C
atom 13.6858619539509014 4.2986296900000003 7.0287458614139950 C
atom 13.6576239662728565 2.5104812499999998 1.5589288049920094 C
atom 1.2831102549156717 7.2865187500000008 10.7687153336243764 C
atom 1.2831102549156717 7.4089812500000001 3.8738653336243756 C
atom 13.6576239662728565 2.3880187500000001 8.4537788049920088 C
atom 10.3938205756542246 8.6141102200000006 2.6812891389112603 C
atom 4.5469136455343033 1.1828897800000000 9.6463549997051263 C
atom 4.5469136455343042 3.7156102200000007 2.7515049997051251 C
atom 10.3938205756542228 6.0813897800000003 9.5761391389112624 C
atom 6.1010488192223358 8.8173979700000000 2.2526109940040016 C
atom 8.8396854019661930 0.9796020300000000 10.0750331446123838 C
atom 8.8396854019661930 3.9188979700000006 3.1801831446123834 C
atom 6.1010488192223358 5.8781020300000009 9.1474609940040015 C
atom 4.7371091921700357 8.8444376899999995 2.0662989305897113 C
atom 10.2036250290184931 0.9525623100000000 10.2613452080266736 C
atom 10.2036250290184931 3.9459376900000005 3.3664952080266746 C
atom 4.7371091921700357 5.8510623100000005 8.9611489305897116 C
atom 0.0796341133989352 2.3658775300000001 3.2355446822588259 C
atom 14.8611001077895928 7.4311224700000009 9.0920994563575590 C
atom 14.8611001077895928 7.2643775300000000 2.1972494563575595 C
atom 0.0796341133989353 2.5326224700000002 10.1303946822588244 C
atom 0.1128025433699734 0.4641818600000000 1.7989975002465535 C
atom 14.8279316778185528 9.3328181400000005 10.5286466383698301 C
atom 14.8279316778185510 5.3626818600000004 3.6337966383698315 C
atom 0.1128025433699741 4.4343181400000002 8.6938475002465552 C
atom 0.7776652162128630 1.3416011800000001 2.6287496474149825 C
atom 14.1630690049756645 8.4553988200000010 9.6988944912014006 C
atom 14.1630690049756645 6.2401011799999999 2.8040444912014029 C
atom 0.7776652162128632 3.5568988200000002 9.5235996474149829 C
atom 11.7325103618727127 3.8519844600000006 -0.7046318542687117 C
atom 3.2082238593158134 5.9450155400000009 13.0322759928850989 C
atom 3.2082238593158139 8.7504844600000009 6.1374259928850972 C
atom 11.7325103618727127 1.0465155400000001 6.1902181457312873 C
atom 4.1826585452217291 9.7633962899999993 1.1886478976056576 C
atom 10.7580756759667988 0.0336037100000000 11.1389962410107302 C
atom 10.7580756759667988 4.8648962900000008 4.2441462410107276 C
atom 4.1826585452217291 4.9321037100000007 8.0834978976056586 C
atom 11.5750350231813872 5.0964973699999998 -0.0962646854897283 C
atom 3.3656991980071402 4.7005026299999999 12.4239088241061122 C
atom 3.3656991980071393 0.1979973700000000 5.5290588241061140 C
atom 11.5750350231813872 9.5990026300000011 6.7985853145102730 C
atom 12.6428492979697307 3.7259950399999999 12.0442199880971863 C
atom 2.2978849232187963 6.0710049600000007 0.2834241505192002 C
atom 2.2978849232187968 8.6244950400000011 7.1782741505192016 C
atom 12.6428492979697307 1.1725049599999999 5.1493699880971846 C
atom 12.3368630611197894 6.1811232400000007 -0.5056288298616785 C
atom 2.6038711600687368 3.6158767600000004 12.8332729684780649 C
atom 2.6038711600687359 1.2826232400000002 5.9384229684780641 C
atom 12.3368630611197894 8.5143767599999993 6.3892211701383239 C
atom 13.3963105247442691 4.8103270000000000 11.6344335220076083 C
atom 1.5444236964442588 4.9866730000000006 0.6932106166087760 C
atom 1.5444236964442595 9.7088270000000012 7.5880606166087770 C
atom 13.3963105247442691 0.0881730000000000 4.7395835220076084 C
atom 13.2479490339278669 6.0359316999999999 12.2581806827111492 C
atom 1.6927851872606605 3.7610683000000003 0.0694634559052365 C
atom 1.6927851872606601 1.1374317000000000 6.9643134559052378 C
atom 13.2479490339278687 8.6595683000000001 5.3633306827111484 C
