#=======================================================
# FHI-aims file: pahs_geometry_fix/REBWIE.in
# Created using the Atomic Simulation Environment (ASE)
# Tue May 25 14:20:53 2021
#=======================================================
lattice_vector -10.5692245732229377 0.0000000000000000 2.4032088799728593 
lattice_vector 0.0000000000000000 0.0000000000000000 -11.2370000000000001 
lattice_vector -0.0000000000000026 -15.8610000000000007 -0.0000000000000010 
atom -0.4238259053862405 -10.2733283100000001 -11.0046636239130873 H
atom -10.1453986678366999 -5.5876716900000005 2.1708725038859469 H
atom -10.1453986678366981 -2.3428283099999985 -3.4476274961140527 H
atom -0.4238259053862410 -13.5181716900000009 -5.3861636239130899 H
atom -9.6454743455232546 -11.4927219900000015 -7.1717473761367705 H
atom -0.9237502276996857 -4.3682780099999992 -1.6620437438903719 H
atom -0.9237502276996856 -3.5622219899999976 -7.2805437438903722 H
atom -9.6454743455232546 -12.2987780099999995 -1.5524982428034366 H
atom -9.1804284643014462 -13.7372121000000007 -7.6213407668555755 H
atom -1.3887961089214940 -2.1237878999999986 -1.2124503531715667 H
atom -1.3887961089214933 -5.8067121000000004 -6.8309503531715654 H
atom -9.1804284643014462 -10.0542878999999985 -2.0028407668555750 H
atom -10.1263740636048976 -14.7688115399999997 1.7788702279019959 H
atom -0.4428505096180430 -1.0921884599999987 -10.6126613479291372 H
atom -0.4428505096180427 -6.8383115399999976 -4.9941613479291371 H
atom -10.1263740636048976 -9.0226884599999995 -3.8396297720980037 H
atom -0.4301674401301756 -15.6605169600000007 -2.1922899985851054 H
atom -10.1390571330927646 -0.2004830399999980 -6.6415011214420359 H
atom -10.1390571330927663 -7.7300169599999986 -1.0230011214420367 H
atom -0.4301674401301733 -8.1309830400000003 -7.8107899985851059 H
atom -1.7301820626365947 -0.9659348999999976 -3.6957390063484432 H
atom -8.8390425105863457 -14.8950651000000018 -5.1380521136786985 H
atom -8.8390425105863457 -8.8964348999999991 0.4804478863213031 H
atom -1.7301820626365945 -6.9645651000000006 -9.3142390063484441 H
atom -3.6463824777619158 -15.8123067299999995 -4.5904980364093637 H
atom -6.9228420954610241 -0.0486932700000003 -4.2432930836177780 H
atom -6.9228420954610250 -7.8818067300000001 1.3752069163822218 H
atom -3.6463824777619145 -7.9791932699999988 -10.2089980364093638 H
atom -3.7467901112075337 -11.4448217699999990 -5.6115848520496217 H
atom -6.8224344620154067 -4.4161782299999999 -3.2222062679775196 H
atom -6.8224344620154067 -3.5143217699999991 -8.8407062679775184 H
atom -3.7467901112075324 -12.3466782300000002 0.0069151479503784 H
atom -4.3756589733142981 -9.3678238199999999 -6.5248719236912374 H
atom -6.1935655999086423 -6.4931761799999981 -2.3089191963359048 H
atom -6.1935655999086414 -1.4373238200000007 -7.9274191963359044 H
atom -4.3756589733142990 -14.4236761799999993 -0.9063719236912373 H
atom -4.0617530034895744 -7.3929707099999993 -5.3882697274264313 H
atom -6.5074715697333660 -8.4680292900000005 -3.4455213926007109 H
atom -6.5074715697333660 -15.3234707100000005 -9.0640213926007132 H
atom -4.0617530034895735 -0.5375292899999996 0.2302302725735697 H
atom -3.1210920164727334 -6.2257597199999983 -3.2109217177440152 H
atom -7.4481325567502070 -9.6352402800000014 -5.6228694022831265 H
atom -7.4481325567502052 -14.1562597199999995 -0.0043694022831275 H
atom -3.1210920164727329 -1.7047402800000004 -8.8294217177440153 H
atom -1.9542496235889206 -6.4849284599999999 -1.2411966780930181 H
atom -8.6149749496340178 -9.3760715399999999 -7.5925944419341231 H
atom -8.6149749496340178 -14.4154284600000011 -1.9740944419341231 H
atom -1.9542496235889208 -1.4455715399999982 -6.8596966780930186 H
atom -1.1087116577310874 -8.5769943599999987 -0.5760702884908463 H
atom -9.4605129154918526 -7.2840056400000002 -8.2577208315362931 H
atom -9.4605129154918508 -0.6464943599999986 -2.6392208315362939 H
atom -1.1087116577310885 -15.2145056400000005 -6.1945702884908478 H
atom -5.1873754205378182 -12.5439890700000003 -2.6399613817093215 H
atom -5.3818491526851195 -3.3170109299999990 -6.1938297383178202 H
atom -5.3818491526851195 -4.6134890700000000 -0.5753297383178209 H
atom -5.1873754205378200 -11.2475109299999989 -8.2584613817093206 H
atom -7.2737403512920267 -11.8251685499999990 -3.3870298488026793 H
atom -3.2954842219309133 -4.0358314499999999 -5.4467612712244620 H
atom -3.2954842219309133 -3.8946685499999991 0.1717387287755374 H
atom -7.2737403512920267 -11.9663314500000002 -9.0055298488026789 H
atom -7.9417153443197179 -12.2692765500000007 -5.5780615475883941 H
atom -2.6275092289032234 -3.5917234499999990 -3.2557295724387467 H
atom -2.6275092289032238 -4.3387765499999995 -8.8742295724387468 H
atom -7.9417153443197170 -11.5222234500000003 0.0404384524116053 H
atom -6.5412930883676781 -13.4731264500000005 -6.9988364241847982 H
atom -4.0279314848552614 -2.3878735499999997 -1.8349546958423437 H
atom -4.0279314848552614 -5.5426264499999993 -7.4534546958423435 H
atom -6.5412930883676781 -10.3183735500000004 -1.3803364241847980 H
atom -4.4824081415038508 -14.2262067300000012 -6.2455196140035119 H
atom -6.0868164317190905 -1.6347932699999983 -2.5882715060236308 H
atom -6.0868164317190914 -6.2957067300000000 -8.2067715060236299 H
atom -4.4824081415038499 -9.5652932699999997 -0.6270196140035106 H
atom -0.2684583041598653 -11.1946937999999996 0.0599178055513103 C
atom -10.3007662690630752 -4.6663062000000002 -8.8937089255784514 C
atom -10.3007662690630752 -3.2641937999999979 -3.2752089255784513 C
atom -0.2684583041598644 -12.5968062000000014 -5.5585821944486904 C
atom -10.0259664301592810 -11.9119282200000001 -7.9347490564577470 C
atom -0.5432581430636597 -3.9490717799999997 -0.8990420635693949 C
atom -0.5432581430636597 -3.9814282199999989 -6.5175420635693948 C
atom -10.0259664301592810 -11.8795717800000009 -2.3162490564577469 C
atom -9.7585650484567399 -13.2471072000000003 -8.1944451411210597 C
atom -0.8106595247662008 -2.6138927999999977 -0.6393459789060819 C
atom -0.8106595247662001 -5.3166072000000009 -6.2578459789060812 C
atom -9.7585650484567399 -10.5443928000000007 -2.5759451411210592 C
atom -10.3293031754107787 -13.8579143100000000 1.9576084383974737 C
atom -0.2399213978121616 -2.0030856900000003 -10.7913995584246152 C
atom -0.2399213978121610 -5.9274143099999979 -5.1728995584246160 C
atom -10.3293031754107787 -9.9335856900000010 -3.6608915616025248 C
atom -0.6383811642226664 -13.1708157900000007 -1.3044191836496404 C
atom -9.9308434090002731 -2.6901842099999991 -7.5293719363775011 C
atom -9.9308434090002731 -5.2403157899999995 -1.9108719363775017 C
atom -0.6383811642226672 -10.6206842100000003 -6.9229191836496407 C
atom -1.3803407292629184 -13.8615623399999990 -2.3560521202755469 C
atom -9.1888838439600224 -1.9994376599999992 -6.4777389997515957 C
atom -9.1888838439600224 -5.9310623399999995 -0.8592389997515961 C
atom -1.3803407292629177 -9.9299376600000002 -7.9745521202755461 C
atom -1.1520454784813026 -15.2197397700000003 -2.6237118320829595 C
atom -9.4171790947416376 -0.6412602299999994 -6.2100792879441835 C
atom -9.4171790947416394 -7.2892397699999991 -0.5915792879441811 C
atom -1.1520454784813001 -8.5717602300000006 -8.2422118320829583 C
atom -1.9362819418144426 -0.0629681700000005 -3.4859399331889729 C
atom -8.6329426314084969 -15.7980318299999993 -5.3478511868381702 C
atom -8.6329426314084969 -7.9934681699999990 0.2706488131618302 C
atom -1.9362819418144426 -7.8675318299999999 -9.1044399331889725 C
atom -3.0513351342894630 -15.2992033799999998 -4.0571971963518365 C
atom -7.5178894389334765 -0.5617966200000001 -4.7765939236753043 C
atom -7.5178894389334774 -7.3687033799999986 0.8419060763246939 C
atom -3.0513351342894630 -8.4922966200000012 -9.6756971963518357 C
atom -3.3071103689614589 -13.9627555200000000 -3.8641955414564939 C
atom -7.2621142042614810 -1.8982444800000002 -4.9695955785706474 C
atom -7.2621142042614819 -6.0322555199999988 0.6489044214293521 C
atom -3.3071103689614585 -9.8287444800000010 -9.4826955414564917 C
atom -2.3939293658349978 -13.1774774099999998 -3.0919663886861484 C
atom -8.1752952073879417 -2.6835225899999977 -5.7418247313409934 C
atom -8.1752952073879417 -5.2469774100000013 -0.1233247313409937 C
atom -2.3939293658349987 -10.6140225899999994 -8.7104663886861466 C
atom -2.4161247374387669 -11.7334919700000011 -2.9891577500382045 C
atom -8.1530998357841735 -4.1275080299999978 -5.8446333699889372 C
atom -8.1530998357841753 -3.8029919699999990 -0.2261333699889355 C
atom -2.4161247374387669 -12.0580080299999999 -8.6076577500382037 C
atom -3.0132859258258615 -10.6980858899999998 -3.8793145483197384 C
atom -7.5559386473970784 -5.1629141099999982 -4.9544765717074029 C
atom -7.5559386473970784 -2.7675858900000008 0.6640234282925958 C
atom -3.0132859258258606 -13.0934141099999994 -9.4978145483197380 C
atom -3.5956501998104446 -10.6459032000000011 -5.1200591390332342 C
atom -6.9735743734124949 -5.2150967999999978 -3.7137319809939084 C
atom -6.9735743734124940 -2.7154032000000003 -9.3322319809939085 C
atom -3.5956501998104451 -13.1455967999999999 0.4984408609667672 C
atom -3.9708576721598594 -9.3898706099999991 -5.6651409237941976 C
atom -6.5983669010630814 -6.4711293899999998 -3.1686501962329441 C
atom -6.5983669010630805 -1.4593706099999988 -8.7871501962329432 C
atom -3.9708576721598603 -14.4016293900000001 -0.0466409237941990 C
atom -3.7721562501832677 -8.2121913600000003 -5.0035139507376885 C
atom -6.7970683230396718 -7.6488086400000004 -3.8302771692894551 C
atom -6.7970683230396709 -0.2816913599999982 -9.4487771692894551 C
atom -3.7721562501832691 -15.5793086400000007 0.6149860492623130 C
atom -3.1316612410459577 -8.2199632499999993 -3.7400286088640424 C
atom -7.4375633321769818 -7.6410367500000005 -5.0937625111631002 C
atom -7.4375633321769810 -0.2894632499999981 0.5247374888369010 C
atom -3.1316612410459590 -15.5715367500000017 -9.3585286088640434 C
atom -2.7405999318367087 -9.4517285099999988 -3.2491181374230385 C
atom -7.8286246413862326 -6.4092714899999992 -5.5846729826041024 C
atom -7.8286246413862299 -1.5212285099999991 0.0338270173958969 C
atom -2.7405999318367096 -14.3397714900000004 -8.8676181374230385 C
atom -2.8325521856237477 -7.0898669999999999 -2.9416667201672748 C
atom -7.7366723875991923 -8.7711329999999990 -5.8921243998598687 C
atom -7.7366723875991932 -15.0203670000000002 -0.2736243998598674 C
atom -2.8325521856237463 -0.8406329999999991 -8.5601667201672740 C
atom -2.1275849065897789 -7.2475253400000001 -1.7804895524614639 C
atom -8.4416396666331615 -8.6134746599999996 -7.0533015675656783 C
atom -8.4416396666331615 -15.1780253400000014 -1.4348015675656782 C
atom -2.1275849065897789 -0.6829746599999981 -7.3989895524614635 C
atom -1.6487990334227787 -8.5099023299999992 -1.3555974147242336 C
atom -8.9204255398001617 -7.3510976700000015 -7.4781937053029077 C
atom -8.9204255398001600 -0.5794023299999975 -1.8596937053029068 C
atom -1.6487990334227798 -15.2815976700000018 -6.9740974147242341 C
atom -1.9637619257048218 -9.6328611299999984 -2.0705717901010421 C
atom -8.6054626475181184 -6.2281388699999995 -6.7632193299260983 C
atom -8.6054626475181166 -1.7023611299999988 -1.1447193299260983 C
atom -1.9637619257048224 -14.1586388700000008 -7.6890717901010435 C
atom -1.7259543728073088 -11.0849356799999992 -1.9684496899004320 C
atom -8.8432702004156312 -4.7760643200000015 -6.8653414301267093 C
atom -8.8432702004156312 -3.1544356799999975 -1.2468414301267097 C
atom -1.7259543728073077 -12.7065643200000000 -7.5869496899004325 C
atom -0.8761887171201843 -11.8050250800000001 -1.0559468838502506 C
atom -9.6930358561027568 -4.0559749199999979 -7.7778442361768905 C
atom -9.6930358561027568 -3.8745250800000011 -2.1593442361768909 C
atom -0.8761887171201843 -11.9864749199999991 -6.6744468838502513 C
atom -4.6113526812971699 -13.4452110899999990 -4.3688376656678418 C
atom -5.9578718919257696 -2.4157889099999994 -4.4649534543592999 C
atom -5.9578718919257696 -5.5147110899999996 1.1535465456407010 C
atom -4.6113526812971699 -10.3462889100000002 -9.9873376656678410 C
atom -5.4600614145269706 -12.7360657800000006 -3.5297324926060218 C
atom -5.1091631586959707 -3.1249342199999997 -5.3040586274211199 C
atom -5.1091631586959707 -4.8055657799999985 0.3144413725788799 C
atom -5.4600614145269706 -11.0554342200000004 -9.1482324926060201 C
atom -6.6998314569660220 -12.3046465800000000 -3.9726225909852051 C
atom -3.8693931162569180 -3.5563534199999980 -4.8611685290419366 C
atom -3.8693931162569184 -4.3741465800000006 0.7573314709580620 C
atom -6.6998314569660211 -11.4868534199999992 -9.5911225909852043 C
atom -7.0982912233765267 -12.5738077500000003 -5.2675437162102279 C
atom -3.4709333498464137 -3.2871922499999990 -3.5662474038169125 C
atom -3.4709333498464141 -4.6433077499999991 -9.1847474038169139 C
atom -7.0982912233765267 -11.2176922499999989 0.3509562837897710 C
atom -6.2664932494638812 -13.2859666500000007 -6.1084222550640925 C
atom -4.3027313237590583 -2.5750333499999982 -2.7253688649630492 C
atom -4.3027313237590574 -5.3554666499999986 -8.3438688649630492 C
atom -6.2664932494638812 -10.5055333500000003 -0.4899222550640924 C
atom -5.0415201214273431 -13.7254749600000014 -5.6632913642529470 C
atom -5.5277044517955964 -2.1355250399999979 -3.1704997557741947 C
atom -5.5277044517955964 -5.7949749600000002 -8.7889997557741957 C
atom -5.0415201214273431 -10.0660250399999995 -0.0447913642529467 C
