#=======================================================
# FHI-aims file: pahs_geometry_fix/TAYSUJ.in
# Created using the Atomic Simulation Environment (ASE)
# Tue May 25 14:20:53 2021
#=======================================================
lattice_vector 6.4746469826010786 0.0000000000000000 -0.2891429762154659 
lattice_vector -2.7486307137047112 10.9606509020519933 -0.6652106155391493 
lattice_vector 0.0000000000000000 0.0000000000000000 39.0621000000000009 
atom 2.5609119165252601 4.9125637342997033 33.3875947166483371 H
atom 4.0475408248283058 1.8786555646117116 23.8362864473958140 H
atom 2.5663737911000863 0.2356539943941178 28.3798772849105383 H
atom 3.1261089119209160 4.0839385261045722 36.3281441868960044 H
atom 3.5149078298569187 4.7591146216709754 27.5982693084290176 H
atom 0.1198560693951125 2.1581521626140372 34.4446129219287442 H
atom 0.0670746942761536 0.2773044678219154 29.4455174946287137 H
atom 4.1333262096205967 9.2047546275432630 22.4151683280334559 H
atom 2.8226455612406438 6.3319680261154367 18.0708963820050563 H
atom 4.9670179394463210 2.9549914831932176 27.2139051502190910 H
atom 3.5649572506106102 2.8684023410670063 6.8259210845516316 H
atom -0.3709627777318140 9.4108148645018410 24.5858606732046958 H
atom 3.1916590360482502 6.7013419615145891 25.1332588800572267 H
atom -1.1164596866235750 8.7586561358297477 27.5761628286899274 H
atom 3.8753438154197322 1.3492561260426004 32.0342950243061040 H
atom 1.2312639992055094 3.3134047676903178 37.9642355329978898 H
atom 1.2441292092001002 3.7036039398033682 29.7442873201914146 H
atom 2.7550843034690682 6.6246174052002251 36.6269035798915681 H
atom 2.1235898785891139 0.9272710663135986 30.5413146528805832 H
atom 5.0812593786940123 4.7766516631142588 32.2926350854142825 H
atom 3.5214955598161910 7.2811603942331393 33.4830100640409896 H
atom 1.3538422146783904 8.2336409576214571 27.7418667841652251 H
atom 2.3782871446620057 9.0721307516284355 6.8743324565121906 H
atom 1.9386385449329702 10.2624574395912820 4.6131038805461362 H
atom 3.7309617564358324 0.3836227815718198 34.8523213352151657 H
atom 1.3261348518652196 4.6933507162586636 26.8335640498212413 H
atom 4.5544501591554880 6.7276475236795132 -0.6792276848896389 H
atom 1.2456917077506164 8.3783215495285432 36.9744821410761020 H
atom 1.0263821458537006 7.7579487084724006 33.3765680902384929 H
atom 0.4050260868802890 0.0734363610437484 36.9684418382313922 H
atom 3.1108010489827298 8.8594941241286271 31.8097759242486511 H
atom 2.9833431588827790 4.1420299758854489 31.2327395515627089 H
atom 0.4225212475497340 5.4540198888610716 24.4403511847841415 H
atom 0.6071177976017779 9.3110729412931690 31.6039675037071852 H
atom -0.8506368064434694 9.2968240951205008 35.9942663172392159 H
atom 0.3182444701337079 0.9152143503213415 0.9043583378146527 H
atom 3.8985543393766560 6.2190733218243013 30.1284970877934484 H
atom 0.5457192470526055 2.8223676072783883 25.8193384663033534 H
atom 6.0850115107023015 1.0631831374990435 31.3077511506253323 H
atom -1.5690883099286024 9.8974677645529496 31.0808770645217685 H
atom -0.9698321552328585 4.0894188515555987 30.4326028397468917 H
atom 1.7241497807591442 6.7079183520558194 29.4092161035030841 H
atom 2.9682866825540630 9.1773530002881341 13.3794155632673029 H
atom -2.1105723796468494 9.3483391543601453 6.1018229045652816 H
atom -0.7597245510315123 7.2044358379187754 29.2617917931520743 H
atom 4.5502192675644695 2.2907760385288665 35.9715859456777807 H
atom 1.9012883226938118 10.5792202506605832 36.6385467044116524 H
atom 3.1251114295763118 8.5778053959458891 16.1225169709610796 H
atom 1.2219147541235229 10.6186785939079709 -0.2398227500636074 H
atom 1.1323034444561555 7.6867044776090632 24.1387729647629641 H
atom 1.9488234922648620 0.9864585811846793 25.3613236770691906 H
atom 4.7329301983225287 4.9728473142609895 24.6965077708972842 H
atom 3.9799765724721912 3.0207553886055294 9.4565636586605528 H
atom 1.5122893111734623 0.3079942903476610 34.1091915310424483 H
atom 1.1044483955791238 5.5153995339125625 21.6945755667987186 H
atom 0.8367449927927574 6.8591753345041377 19.5122921454881144 H
atom 3.3840572104279971 5.9702665463477205 21.9350693279469873 H
atom 0.8944863481594643 0.4504827520743369 5.0252732466022145 H
atom -2.0562365700706473 10.3709678835215957 17.9163831312771364 H
atom 3.7571705942901912 5.0375151545830965 10.8801071473407358 H
atom 1.6683188394861133 9.3910856928781481 1.9261279491857666 H
atom 0.6301085570413784 9.2168113435355217 14.0786467492984428 H
atom 1.8278969831798226 0.0822048817653900 14.9865249906739422 H
atom 3.2273921142182727 3.4657578152288400 1.4660756023149959 H
atom 5.0950712582225011 3.4745263359504821 18.9717025722915373 H
atom -0.1663417477785184 10.4641334161890374 20.9463488815733854 H
atom 4.4517034608429444 4.6845821955370219 17.6517374965873302 H
atom 4.2169362614302921 4.6396435268386087 14.8686059332072276 H
atom 5.1787444590900202 1.1399076938134072 6.5851482840580760 H
atom 1.0904973742944635 7.1847066662950816 2.8371031840386389 H
atom 1.6311812237418559 2.7204335538893050 3.7354491898213968 H
atom 3.3976023317468731 5.2139816341061334 7.6178869593722478 H
atom 0.0687434756898779 3.9524107152799486 16.2790289568301105 H
atom 2.6095532841372751 5.4879979066574336 2.4381211786413073 H
atom 0.6553443630313610 3.3714962174711931 22.4742187027734133 H
atom 3.5795501325124008 8.0023712235881597 19.8740211297161622 H
atom 1.0262421795636485 4.5673032308850656 13.5397482022821709 H
atom 1.2162831304871917 0.6466784032210676 7.8522375940469180 H
atom 2.8701802098287921 8.2621386499667935 11.2503950542613236 H
atom -0.5709525250829692 7.0455063998390219 8.6517168886244384 H
atom -0.1863175441512372 9.8854110485606927 3.9382384979673448 H
atom 4.5909980318416181 0.8165684922028734 9.1893018066595378 H
atom -0.6217642105268274 7.6121720514751097 5.7617152838364261 H
atom 3.9536203928734346 9.8284156638700235 2.0777853887236537 H
atom 0.5067206709191028 6.7035340916949995 12.5421971758730511 H
atom 4.6929226688996701 6.8854808966690619 16.0374454904006711 H
atom 0.6205617871031505 5.9604019605358731 17.3600192669402169 H
atom 1.7377555367657203 2.4968362754874440 15.6763295111639156 H
atom -0.2990015679466415 8.0188121999412392 10.7336418307601900 H
atom 1.9675179730574823 6.9457644766303490 7.8150637318590013 H
atom -1.3446976207139947 10.2832826763051806 9.0042833392345027 H
atom 2.3318177847180790 9.4820590953651784 9.4719111555979527 H
atom 3.9701472060992877 5.9878035877910039 12.9428832015312718 H
atom 4.9779505636336294 4.3546666033852572 21.1831678822442981 H
atom 0.2117473594300198 7.2033397728285697 15.2147240177813110 H
atom -0.9959236923146820 8.1075934722478600 2.4459674428959737 H
atom 1.3869380280961439 8.7290623783942074 20.8454683300208217 H
atom -1.3192044661244537 6.3242955704839998 19.6782739742138340 H
atom 1.3382996958371542 2.3159855356035859 13.3907870787863157 H
atom 2.1603391496078852 1.6353291145861575 22.0083895046040183 H
atom -0.9566349358676474 10.0706460488053704 0.4163901533056223 H
atom 1.5082700792380086 0.2904572489043778 11.8764844338963975 H
atom 4.1456314865075035 5.1460255985134102 4.1519022231738640 H
atom 4.7713875790314839 1.7548002094185240 1.1177849288963537 H
atom 5.0926918358737012 0.8943891136074427 22.3474958987038654 C
atom 2.2040337657006255 10.7765119668975196 26.4562600194258302 C
atom -0.6580388692093457 6.4065004522493902 34.8821352122018027 C
atom 3.6471972184488126 2.7960620451134632 21.4687052811496564 C
atom -0.8279046595832364 5.3049550365931646 0.5649662551247315 C
atom 3.0555249713086492 9.6092026458289830 26.2416077041333544 C
atom -0.7706204700284470 5.8201056289896087 37.2011703494793835 C
atom 4.1843444852112874 6.6750363993496640 1.7820732192569044 C
atom 0.5872999622053393 3.5008318981154067 1.4334092748792360 C
atom 3.5739845709814624 9.3877974976075329 24.9511812507678385 C
atom 3.6055725449568166 1.7898742923050905 26.3100373907763334 C
atom 5.0065952543181194 0.3211470714301234 24.7405738205522141 C
atom 0.2058032478715981 5.2983786460519333 34.6158018390853073 C
atom 3.3118808797777994 8.6643945380721004 27.3640861392641810 C
atom 3.7989890006990001 10.5715477950291472 20.1498317724066425 C
atom -1.3167213024615612 5.5449932913481037 1.8695260956698880 C
atom 0.9298476356469804 2.4343605653457474 8.7818149642470971 C
atom 0.5910234097461309 4.4774258934882392 35.6935437457480234 C
atom 1.8370579091731929 4.7240405387844087 32.8010578687028698 C
atom 4.6262799469582969 1.1431958890840230 23.6754245714469711 C
atom -1.9845835081062448 8.2314488274410476 24.9985623541226509 C
atom 0.5199687438635069 4.8950266928564199 33.2366424368196576 C
atom 4.5767819829520757 0.1709861540720111 28.5470871568678568 C
atom 4.5075903252038998 0.5940672788912180 26.0846305981436153 C
atom 0.9856960506233375 2.8519613647139286 6.2930748459849104 C
atom 3.2887433675241793 0.3836227815718198 28.9803332574906847 C
atom 2.7946163824322996 3.3145008327805230 35.8787366231803020 C
atom 0.0945024960076745 4.2034096209369398 0.3428098669601126 C
atom 3.1979343868013950 3.9885808632567206 27.1420422152271961 C
atom 0.1605520000919643 4.7481539707689233 36.9823543502122760 C
atom 3.3051637891708627 10.8444680024902418 21.4518607886170756 C
atom 3.1789730526726965 10.2142305756222527 23.8465297756664327 C
atom 4.3342976418597789 7.7656211641038375 36.0911538623662693 C
atom 4.9375721767781053 1.7427434934262669 17.5094998375728181 C
atom 1.0120991287879151 2.1734970738769102 34.7692854951587691 C
atom 5.6444888272862377 0.4186968644583861 29.4319788406070693 C
atom 3.6068486279542382 9.9796726463183401 22.5763283671946944 C
atom 2.5901417202050743 5.5318405102656412 17.6138057980482294 C
atom 4.0632242296199390 2.9056685541339835 26.9281282051235067 C
atom -1.1705001376615498 6.6607875531769967 36.1199304311730245 C
atom 3.3229612443869505 2.0441613932326970 6.4205967740919068 C
atom -0.6566201832462908 8.5076572301727573 24.6537797123437663 C
atom 0.0069189147960134 4.5552465148928087 7.7854137599036841 C
atom 1.5741236667653298 2.3773651806550773 1.2185457688621344 C
atom 4.6628516676047820 1.7383592330654460 21.2372797436058107 C
atom 4.0800057819487598 6.9052100682927557 24.8664334927593345 C
atom -1.8527751468761187 8.3487277920930030 28.0162451424286125 C
atom 5.1992324247022363 1.4687272208749671 19.9920976772700740 C
atom 4.0565839970137150 1.0577028120480174 31.1499045019766498 C
atom 0.5837651508936370 3.9951572537979514 38.0996075137608159 C
atom 1.4845998207410627 3.3101165724197017 35.4676370971101491 C
atom -1.6570410723261784 9.5149410480713357 20.2057756345286030 C
atom -0.9436527558304901 7.3776141221711971 33.7567285460104358 C
atom 1.0581369694324865 4.0192706857824660 30.6201253725714402 C
atom 3.0400758916900981 7.5201025838978728 36.4912071703738619 C
atom 3.0233699062031905 0.8067039063910267 30.2633182169457733 C
atom -0.4916835347933957 4.6484120475602504 32.3101065881258194 C
atom -0.5335310081557412 4.5157881716454211 5.4073321740979408 C
atom 4.2579454638146279 7.7086257794131674 33.0615826842340894 C
atom 2.2448261981521775 8.0319649810236999 28.0048541991783786 C
atom 3.0044439861060659 8.3618805731754655 6.7946960874450175 C
atom 1.2573430641452632 10.8905027362788616 4.8257204010515746 C
atom 3.1583430322567394 1.1256588476407396 35.0014997252232334 C
atom -0.8344177151819513 4.8248785270832872 2.9364645044191695 C
atom 1.9008730946549446 3.9480264549191282 26.7021053394025927 C
atom -1.2702852408565288 6.0491832328424948 38.5355179338901337 C
atom 2.1348446902700489 8.5712290054046587 36.7009869082866160 C
atom 0.1371817845540301 7.9705853359722090 33.1224785895264517 C
atom 3.8440106349053265 10.1364099542176831 36.1371428623080817 C
atom 4.0011986011234022 8.6446653664484074 32.0620164477861778 C
atom 2.0847970273000782 4.2757499168904829 31.5112978186755157 C
atom -0.1941984864917948 6.1653661324042464 24.5726117743254413 C
atom -0.1166820036775982 8.9132013135486812 32.0723113386258660 C
atom -1.7495994979923235 9.1017245090639758 36.2335919519137590 C
atom 1.0956220748634693 2.1734970738769102 11.2017343467655888 C
atom 1.2425193182798511 1.0971611552954044 1.0218754637596261 C
atom 3.7480271148211570 6.8219091214371606 29.4102479446411778 C
atom 1.4554805584888053 2.8530574298041338 26.0913448428501162 C
atom 5.3672595487059453 0.8735638768935438 30.7163331430628261 C
atom -1.4123126451123305 9.2387326453396241 31.7470069503847512 C
atom -0.2486781222449536 4.2319073132822744 31.0335070748252910 C
atom 2.4650341990898825 7.1331916070554380 28.9936075950335628 C
atom 6.0079781573530564 0.1413923966364707 16.0022253880600296 C
atom 2.7443270596033855 9.7451147170144274 12.6509517488826901 C
atom 4.8306777240058176 6.2793569017855866 6.5362935529876607 C
atom 4.1491987036767455 8.4934083840000891 6.1665461396849546 C
atom -1.6491630702121793 7.4335134417716624 29.0198121047309954 C
atom 3.6503470511180218 2.2567980207325053 35.6708589991489831 C
atom 2.5203230524570102 9.8689700722076150 36.5146975986183193 C
atom 3.9625893029652270 8.7444072896570795 15.7075188974348237 C
atom 3.3752407251788310 0.3123785507084818 0.7717248329438048 C
atom 0.2422281341670920 7.4948930868231525 24.4091056227885232 C
atom 2.2761196653021734 1.7416474283360619 25.8353802461565500 C
atom 4.4519267001592233 2.2644704763639418 12.6320118813697615 C
atom -2.2562434060371799 10.0092664037538803 15.4950927532220035 C
atom 4.6246337495251186 1.9630525765575122 15.1100052966538563 C
atom -1.4681657309199765 5.8803892089508940 24.9113166097870327 C
atom 4.1952566682897192 2.4979323405776492 10.2200746893309695 C
atom 3.2850224479430068 3.4295876672520689 16.7007118460246602 C
atom 0.5758035042549567 4.9202361899311402 11.5606835998322541 C
atom 1.8412897204245580 1.0796241138521214 34.5558184485279085 C
atom 1.7698380975612826 4.8500880241580067 21.8251886899933538 C
atom 0.1889281747831215 7.4466662228541241 19.8857023985566705 C
atom 3.0891948798124016 5.0857420185521249 21.7501093641229879 C
atom 6.1601579671882574 0.4614434029763889 19.7770695452401526 C
atom 0.1511968473778700 3.7759442357569113 2.6959845881806199 C
atom 1.7767553768790330 0.6269492315973740 5.3309958317956010 C
atom 0.0422076979736322 0.0898773373968264 18.7160714781904254 C
atom 5.2666980867899618 0.0920694675772367 13.5658535272614369 C
atom 3.9656461222681867 4.4927708047511121 11.6298731308970371 C
atom 2.0448223975386690 1.8326208308230931 6.0405440168817117 C
atom 2.3079687254585326 8.7148135322215410 2.1137560730912890 C
atom -0.1572699752644929 9.1137812250562327 14.5997268118971739 C
atom 0.5349991478232271 4.4116619880759274 10.2701744477748722 C
atom -0.6641396234062572 5.0934144741835610 6.7020945861113521 C
atom 0.7064693201627034 3.2838110102547771 7.6201882673047567 C
atom -1.0914475865747921 10.2054620549006110 14.7371813841634527 C
atom 2.9115544027821705 2.5900018081548861 1.2736095646295928 C
atom 4.2785286536122387 2.3543478137607678 16.4074742876681583 C
atom 5.0827293169137056 2.5297182281935999 18.8643962819353099 C
atom -0.4413768062086315 9.6322200127232929 20.5809418276161011 C
atom 3.5628560710056703 4.5420937338103462 17.3505065725929057 C
atom 4.2118833085847811 4.2286191180116584 14.0104984859927431 C
atom 4.3097853748033756 1.0368775753341186 6.2153494581571200 C
atom 5.9189844073070379 0.7157305039039952 17.2898970685079476 C
atom 1.9443146614809612 7.3765180570809923 2.4683907506798897 C
atom 0.8425039157420553 3.2344880811955430 3.8680881052289675 C
atom 0.1051158729279150 5.1602744446860784 9.1179878290440062 C
atom 3.6062600945179386 6.0601438837445469 7.2395384373986209 C
atom 0.9689643914448777 4.1321653900736015 16.5204328622078123 C
atom 2.8549701398041063 6.3889634108061069 2.2620016603755029 C
atom 1.5027420610208189 3.5863249751514119 22.1033569994196526 C
atom -1.9794648238853090 8.2446016085235083 20.0892353505149224 C
atom 0.9375318368966901 4.1387417806148328 12.6956217195290790 C
atom 4.7794166604713277 0.8965812437878530 12.4852577193319636 C
atom 1.1623007046403271 1.0478382262361705 8.7121281050894339 C
atom 2.6641737514828514 9.1817372606489549 11.3637958963079715 C
atom -0.2357143355714692 6.5193951565405257 9.3683108047171526 C
atom 0.0190721655177386 10.6800582389594627 4.4149024823272907 C
atom 4.4964694634649467 1.1651171908881270 10.0680663293592296 C
atom -1.4090573812927827 7.4674914595680235 6.2752390085361496 C
atom 3.6391202916038110 8.9318344200821684 2.0703486069935044 C
atom 0.3537709037989166 6.2936057479582548 11.6995999504547257 C
atom 4.3734268290312608 2.8563456250747494 13.9199073009875196 C
atom -1.5971388359166725 7.7217785604956291 15.9144776093989790 C
atom 1.2927377043296551 5.3093392969539854 17.1916517855727058 C
atom 5.3261572785973792 0.7431321311591251 14.8874732083165977 C
atom 1.9425831432763525 3.2498329924584159 16.2185121989224754 C
atom -0.0975273624885212 7.0992135892590769 10.6067716537968941 C
atom 2.7787489850638747 7.0827726129059982 7.3393034264710222 C
atom 1.3121126038399669 0.2619595565590426 9.7837989859499643 C
atom 0.3745282099383442 3.4482207737855570 5.2029049117037438 C
atom 2.3233960456304179 9.8667779420272037 10.3418863555159977 C
atom 4.0368936965337445 5.0451876102145325 12.8482934924444852 C
atom 4.0884126024717036 4.1168204788107285 21.4196769729146830 C
atom 4.6762597900391549 0.2674398820100686 11.2011225556053962 C
atom 4.2026374197289389 3.0700783176647635 11.4407101148540065 C
atom 0.8585125569698367 3.0054104773426564 10.1029184631415152 C
atom -0.4277497302013185 7.9048214305598972 15.2440245264838321 C
atom -1.9161549803506004 7.9146860163717436 2.3095266489712962 C
atom 0.5160792304846766 8.6052070232010198 20.4870169865632299 C
atom -1.0198098826210371 7.2088200982795954 19.8591253279544802 C
atom 1.1538046898695529 2.8322321930902352 12.6158272640922515 C
atom 2.4281424066424497 2.5373906838250364 21.8702535648599081 C
atom 2.0953912406807471 0.0043842603608208 0.9764109600552165 C
atom 1.3358387446563531 0.8231448827441047 11.1091788498384858 C
atom 5.0475732876457355 4.8851621070445734 4.0077219692966581 C
atom 3.8396363701727769 1.5794297949856924 1.0626282652606509 C
