#=======================================================
# FHI-aims file: pahs_geometry_fix/PHNAPH.in
# Created using the Atomic Simulation Environment (ASE)
# Tue May 25 14:20:53 2021
#=======================================================
lattice_vector -0.0000000000000008 -5.1500000000000004 -0.0000000000000003 
lattice_vector -8.8991869381244229 0.0000000000000000 6.4656377752172034 
lattice_vector -8.8991869381244229 0.0000000000000000 -13.1343622247827980 
atom -6.2739267913777184 -4.3260000000000005 2.0102746315281279 C
atom -11.5244470848711291 -0.8239999999999996 -8.6789990810937230 C
atom -11.5244470848711273 -1.7509999999999999 1.1210009189062771 C
atom -6.2739267913777184 -3.3990000000000000 -7.7897253684718724 C
atom -7.1905430460045334 -3.2960000000000003 1.8138353223754988 C
atom -10.6078308302443105 -1.8540000000000001 -8.4825597719410979 C
atom -10.6078308302443087 -0.7210000000000001 1.3174402280589046 C
atom -7.1905430460045334 -4.4290000000000003 -7.9861646776245001 C
atom -8.1961511700125946 -3.2444999999999995 2.7600523909750430 C
atom -9.6022227062362511 -1.9054999999999995 -9.4287768405406389 C
atom -9.6022227062362511 -0.6695000000000001 0.3712231594593612 C
atom -8.1961511700125946 -4.4805000000000001 -7.0399476090249573 C
atom -8.2495462916413409 -4.1200000000000001 3.8376462176263457 C
atom -9.5488275846075048 -1.0299999999999998 -10.5063706671919430 C
atom -9.5488275846075048 -1.5450000000000004 -0.7063706671919429 C
atom -8.2495462916413409 -3.6050000000000000 -5.9623537823736532 C
atom -7.3240308500764000 -4.9954999999999998 4.0472198890037587 C
atom -10.4743430261724448 -0.1545000000000001 -10.7159443385693525 C
atom -10.4743430261724448 -2.4205000000000001 -0.9159443385693528 C
atom -7.3240308500764000 -2.7295000000000003 -5.7527801109962420 C
atom -6.3006243521920924 -5.0985000000000005 3.0684715448537814 C
atom -11.4977495240567542 -0.0514999999999995 -9.7371959944193751 C
atom -11.4977495240567542 -2.5235000000000003 0.0628040055806258 C
atom -6.3006243521920915 -2.6265000000000001 -6.7315284551462202 C
atom -7.4753170280245156 -0.6695000000000001 5.2743357311824486 C
atom -10.3230568482243310 -4.4805000000000001 -11.9430601807480468 C
atom -10.3230568482243292 -3.2444999999999995 -2.1430601807480452 C
atom -7.4753170280245147 -1.9054999999999995 -4.5256642688175504 C
atom -8.6589088907950629 -4.9954999999999998 5.8794655552863357 C
atom -9.1394649854537811 -0.1545000000000001 -12.5481900048519339 C
atom -9.1394649854537811 -2.4205000000000001 -2.7481900048519332 C
atom -8.6589088907950647 -2.7295000000000003 -3.9205344447136619 C
atom -9.1038682377012847 -4.0685000000000002 5.0267474440471993 C
atom -8.6945056385475610 -1.0814999999999999 -11.6954718936127939 C
atom -8.6945056385475610 -1.4935000000000003 -1.8954718936127939 C
atom -9.1038682377012847 -3.6564999999999999 -4.7732525559528014 C
atom -1.3615756015330360 -3.2444999999999995 -0.9119574203917664 C
atom -16.4367982747158088 -1.9054999999999995 -5.7567670291738278 C
atom -7.5376113365913868 -0.6695000000000001 -2.4224048043910318 C
atom -10.2607625396574598 -4.4805000000000001 -4.2463196451745651 C
atom -2.0023170610779939 -2.3174999999999999 -1.6812315005761314 C
atom -15.7960568151708518 -2.8325000000000000 -4.9874929489894644 C
atom -6.8968698770464281 -4.8925000000000001 -1.6531307242066680 C
atom -10.9015039992024168 -0.2575000000000002 -5.0155937253589258 C
atom -3.0257235589623028 -1.4935000000000003 -1.3100831564261528 C
atom -14.7726503172865424 -3.6564999999999999 -5.3586412931394438 C
atom -5.8734633791621196 -4.0685000000000002 -2.0242790683566461 C
atom -11.9249104970867261 -1.0814999999999999 -4.6444453812089481 C
atom -3.5596747752497691 -1.8540000000000001 0.0578551100868807 C
atom -14.2386991009990762 -3.2960000000000003 -6.7265795596524764 C
atom -5.3395121628746534 -4.4290000000000003 -3.3922173348696796 C
atom -12.4588617133741906 -0.7210000000000001 -3.2765071146959173 C
atom -3.0079251850860542 -2.7810000000000006 0.8525855680234128 C
atom -14.7904486911627906 -2.3689999999999993 -7.5213100175890082 C
atom -5.8912617530383669 -0.2060000000000002 -4.1869477928062135 C
atom -11.9071121232104762 -4.9440000000000000 -2.4817766567593837 C
atom -15.8761494976139694 -1.5964999999999998 -7.0461022090125098 C
atom -1.9222243786348756 -3.5535000000000001 0.3773777594469145 C
atom -10.8214113167592991 -4.1715000000000009 -2.9569844653358826 C
atom -6.9769625594895475 -0.9784999999999993 -3.7117399842297130 C
atom -8.9818661970943445 -2.5094305098098988 -9.3431862985046408 H
atom -12.1541094337089124 -0.6521186470804561 -8.1037755358744388 H
atom -10.6592064027185227 -2.4188942764720669 -7.8228969740192715 H
atom -5.6481512387282002 -0.5216264059063592 3.1204807657630420 H
atom -14.4553474187188442 -2.2720376839431706 -8.3183077882705376 H
atom -16.0718084763937874 -2.9067226706396250 -4.1656949102378960 H
atom -13.5401236456939227 -3.6605046527357241 -7.0954002361053963 H
atom -14.5103834965436125 -4.2911954683101641 -4.8245272816737854 H
atom -1.7265653998550758 -2.2432773293603714 -2.5030295393276920 H
atom -3.3430264575300268 -2.8779623160568275 1.6495833387049439 H
atom -3.2879903797052266 -0.8588045316898351 -1.8441971678918130 H
atom -4.2582502305549390 -1.4894953472642818 0.4266757865398071 H
atom -12.1502226375206543 -4.6283735940936399 -9.7892052153286357 H
atom -5.6442644425399351 -4.4978813529195412 1.4350510863088526 H
atom -7.1391674735303301 -2.7311057235279379 1.1541725244536736 H
atom -8.8165076791545189 -2.6405694901901051 2.6744618489390493 H
atom -13.1574371686793654 -1.0855046527357204 -2.9076864382429997 H
atom -10.6257523379794936 -0.3317226706396259 -5.8373917641104915 H
atom -12.1871773178296632 -1.7161954683101688 -5.1785593926745968 H
atom -3.2549224955844891 -1.9228813529195423 -4.7694133110916441 H
atom -12.1502226375206615 -3.0966264059063580 0.0107947846713656 H
atom -10.6592064027185316 -0.1561057235279362 1.9771030259807323 H
atom -8.9818661970943428 -0.0655694901901030 0.4568137014953576 H
atom -12.2422133956544439 -4.8470376839431735 -1.6847788860778510 H
atom -5.5561604805943974 -0.3029623160568289 -4.9839455634877412 H
atom -8.8165076791545101 -5.0844305098099003 -7.1255381510609554 H
atom -5.6481512387281940 -2.0533735940936437 -6.6795192342369560 H
atom -7.1391674735303310 -4.9938942764720684 -8.6458274755463176 H
atom -14.5434513806643704 -3.2271186470804532 -1.8993111384739436 H
atom -7.1726215382693583 -4.8182773293603747 -0.8313326854550995 H
atom -5.6111965584191994 -3.4338045316898356 -1.4901650568909801 H
atom -4.6409367075694874 -4.0644953472642813 -3.7610380113225981 H
