#=======================================================
# FHI-aims file: pahs_geometry_fix/KAGGEG.in
# Created using the Atomic Simulation Environment (ASE)
# Tue May 25 14:20:52 2021
#=======================================================
lattice_vector 0.0000000000000009 5.4260000000000002 0.0000000000000003 
lattice_vector -0.0000000000000000 -0.0000000000000000 11.3520000000000003 
lattice_vector 11.6134889734792299 -0.0000000000000000 -0.1532452703228056 
atom 3.9962015557742037 2.3993772000000000 7.8266915024819230 H
atom 7.6172874177050280 3.0266227999999997 3.3720632271952717 H
atom 7.6172874177050272 5.1123772000000001 9.0480632271952715 H
atom 3.9962015557742032 0.3136228000000000 2.1506915024819220 H
atom 1.7455073927139286 2.6918386000000001 8.4171792358704831 H
atom 9.8679815807653011 2.7341614000000001 2.7815754938067125 H
atom 9.8679815807652993 5.4048385999999997 8.4575754938067096 H
atom 1.7455073927139282 0.0211614000000000 2.7411792358704825 H
atom 11.3974780785725169 2.0629651999999998 9.5850802917052000 H
atom 0.2160108949067142 3.3630348000000003 1.6136744379719961 H
atom 0.2160108949067144 4.7759651999999999 7.2896744379719953 H
atom 11.3974780785725169 0.6500348000000000 3.9090802917051981 H
atom 5.2690399472675269 0.7607252000000000 8.8406574208545443 H
atom 6.3444490262117030 4.6652748000000006 2.3580973088226518 H
atom 6.3444490262117039 3.4737252000000001 8.0340973088226519 H
atom 5.2690399472675269 1.9522748000000001 3.1646574208545433 H
atom 2.1833359270140953 3.0917347999999998 1.1733666891793124 H
atom 9.4301530464651346 2.3342652000000004 10.0253880404978801 H
atom 9.4301530464651346 0.3787348000000001 4.3493880404978817 H
atom 2.1833359270140962 5.0472652000000000 6.8493666891793117 H
atom 4.4421595323558067 2.8600446000000002 0.6247740841015270 H
atom 7.1713294411234259 2.5659554000000000 10.5739806455756682 H
atom 7.1713294411234250 0.1470446000000000 4.8979806455756680 H
atom 4.4421595323558067 5.2789554000000001 6.3007740841015272 H
atom 5.4444036307670638 4.2789435999999998 10.4491922172726692 H
atom 6.1690853427121670 1.1470564000000003 0.7495625124045258 H
atom 6.1690853427121670 1.5659436000000002 6.4255625124045261 H
atom 5.4444036307670638 3.8600564000000004 4.7731922172726682 H
atom 3.6021558749040539 1.8312750000000002 8.4778199145039750 C
atom 8.0113330985751769 3.5947249999999999 2.7209348151732193 C
atom 8.0113330985751752 4.5442749999999998 8.3969348151732195 C
atom 3.6021558749040530 0.8817250000000001 2.8018199145039757 C
atom 2.2520877817370928 1.9994810000000001 8.8257508371790010 C
atom 9.3614011917421376 3.4265189999999999 2.3730038924981933 C
atom 9.3614011917421376 4.7124810000000004 8.0490038924981935 C
atom 2.2520877817370923 0.7135190000000000 3.1497508371790013 C
atom 1.6467927364393549 1.1693030000000000 9.7579043006682262 C
atom 9.9666962370398746 4.2566970000000000 1.4408504290089685 C
atom 9.9666962370398746 3.8823030000000003 7.1168504290089691 C
atom 1.6467927364393549 1.5436969999999999 4.0819043006682261 C
atom 0.2721040466486186 1.3510740000000001 10.1355617833163354 C
atom 11.3413849268306119 4.0749260000000005 1.0631929463608578 C
atom 11.3413849268306119 4.0640739999999997 6.7391929463608591 C
atom 0.2721040466486186 1.3619260000000000 4.4595617833163370 C
atom 0.3645474188775137 4.8763462000000004 0.3146349109645674 C
atom 11.2489415546017160 0.5496538000000000 10.8841198187126267 C
atom 11.2489415546017160 2.1633461999999999 5.2081198187126274 C
atom 0.3645474188775135 3.2626537999999998 5.9906349109645678 C
atom 4.3515743183626672 0.8535098000000000 9.0715168372100461 C
atom 7.2619146551165619 4.5724901999999998 2.1272378924671500 C
atom 7.2619146551165628 3.5665098000000000 7.8032378924671493 C
atom 4.3515743183626672 1.8594902000000000 3.3955168372100450 C
atom 3.7765904792857112 5.3983274000000012 10.0302880905437259 C
atom 7.8368984941935196 0.0276726000000000 1.1684666391334675 C
atom 7.8368984941935196 2.6853274000000003 6.8444666391334685 C
atom 3.7765904792857103 2.7406725999999999 4.3542880905437276 C
atom 2.4007404405976263 0.1247980000000000 10.3717480177188701 C
atom 9.2127485328816032 5.3012020000000000 0.8270067119583251 C
atom 9.2127485328816032 2.8377980000000003 6.5030067119583235 C
atom 2.4007404405976267 2.5882019999999999 4.6957480177188700 C
atom 1.7896386508131499 4.6793824000000006 11.3191897838432567 C
atom 9.8238503226660807 0.7466176000000000 -0.1204350541660612 C
atom 9.8238503226660807 1.9663824000000001 5.5555649458339396 C
atom 1.7896386508131497 3.4596175999999996 5.6431897838432565 C
atom 2.5740136960819369 3.6864243999999999 0.5435109582856535 C
atom 9.0394752773972940 1.7395756000000000 10.6552437713915396 C
atom 9.0394752773972940 0.9734244000000001 4.9792437713915412 C
atom 2.5740136960819373 4.4525756000000003 6.2195109582856540 C
atom 3.9288433197280233 3.5453484000000000 0.2137939250497951 C
atom 7.6846456537512058 1.8806516000000002 10.9849608046274003 C
atom 7.6846456537512058 0.8323484000000001 5.3089608046274002 C
atom 3.9288433197280241 4.5936516000000003 5.8897939250497950 C
atom 4.5231055505009561 4.3836653999999999 10.6563765245673796 C
atom 7.0903834229782747 1.0423346000000000 0.5423782051098176 C
atom 7.0903834229782747 1.6706654000000001 6.2183782051098166 C
atom 4.5231055505009561 3.7553346000000003 4.9803765245673768 C
