#=======================================================
# FHI-aims file: pahs_geometry_fix/TBZPYR.in
# Created using the Atomic Simulation Environment (ASE)
# Tue May 25 14:20:53 2021
#=======================================================
lattice_vector 4.0259999999999998 0.0000000000000000 0.0000000000000002 
lattice_vector 0.0000000000000017 10.6929999999999996 0.0000000000000007 
lattice_vector 0.0000000000000000 0.0000000000000000 19.7199999999999989 
atom 0.6280560000000001 0.9089050000000001 8.6768000000000001 H
atom 3.3979440000000007 6.2554049999999997 1.1832000000000005 H
atom 3.3979440000000007 6.2554049999999997 18.5367999999999995 H
atom 0.6280560000000001 0.9089050000000001 11.0432000000000006 H
atom 0.6683160000000005 2.9619610000000001 7.4935999999999998 H
atom 3.3576840000000012 8.3084609999999994 2.3664000000000005 H
atom 3.3576840000000012 8.3084609999999994 17.3536000000000001 H
atom 0.6683160000000005 2.9619610000000001 12.2263999999999999 H
atom 2.6571600000000015 9.5702350000000003 8.6965199999999996 H
atom 1.3688400000000007 4.2237350000000005 1.1634800000000003 H
atom 1.3688400000000007 4.2237350000000005 18.5565199999999990 H
atom 2.6571600000000015 9.5702350000000003 11.0234800000000011 H
atom 3.3375540000000008 8.5543999999999993 6.6062000000000012 H
atom 0.6884460000000006 3.2079000000000000 3.2538000000000000 H
atom 0.6884460000000006 3.2079000000000000 16.4661999999999971 H
atom 3.3375540000000008 8.5543999999999993 13.1138000000000012 H
atom 0.2616900000000012 7.7631179999999995 4.4961600000000006 H
atom 3.7643100000000005 2.4166180000000002 5.3638400000000006 H
atom 3.7643100000000005 2.4166180000000002 14.3561599999999991 H
atom 0.2616900000000012 7.7631179999999995 15.2238399999999992 H
atom 1.5137760000000009 6.1912469999999997 3.2932400000000004 H
atom 2.5122239999999998 0.8447470000000000 6.5667600000000004 H
atom 2.5122239999999998 0.8447470000000000 13.1532400000000003 H
atom 1.5137760000000009 6.1912469999999997 16.4267599999999980 H
atom 2.4920940000000007 4.3306649999999998 4.3975600000000004 H
atom 1.5339060000000015 9.6771650000000005 5.4624400000000009 H
atom 1.5339060000000015 9.6771650000000005 14.2575599999999998 H
atom 2.4920940000000007 4.3306649999999998 15.3224400000000003 H
atom 2.1740400000000006 3.9564100000000000 6.6850800000000001 H
atom 1.8519600000000016 9.3029099999999989 3.1749200000000006 H
atom 1.8519600000000016 9.3029099999999989 16.5450799999999987 H
atom 2.1740400000000006 3.9564100000000000 13.0349199999999996 H
atom 0.6481860000000004 1.7750380000000001 9.1698000000000004 C
atom 3.3778140000000012 7.1215380000000001 0.6902000000000007 C
atom 3.3778140000000012 7.1215380000000001 19.0297999999999981 C
atom 0.6481860000000004 1.7750380000000001 10.5502000000000002 C
atom 0.6803940000000005 2.9726540000000004 8.4795999999999996 C
atom 3.3456060000000010 8.3191539999999993 1.3804000000000007 C
atom 3.3456060000000010 8.3191539999999993 18.3396000000000008 C
atom 0.6803940000000005 2.9726540000000004 11.2403999999999993 C
atom 0.7287060000000006 4.2237350000000005 9.1500800000000009 C
atom 3.2972940000000008 9.5702350000000003 0.7099200000000007 C
atom 3.2972940000000008 9.5702350000000003 19.0100799999999985 C
atom 0.7287060000000006 4.2237350000000005 10.5699199999999998 C
atom 0.6079260000000009 5.4855089999999995 8.4007199999999997 C
atom 3.4180739999999998 0.1390090000000000 1.4592800000000001 C
atom 3.4180739999999998 0.1390090000000000 18.2607199999999992 C
atom 0.6079260000000009 5.4855089999999995 11.3192799999999991 C
atom 0.0885720000000010 6.5655019999999995 9.1303599999999996 C
atom 3.9374279999999997 1.2190019999999999 0.7296400000000003 C
atom 3.9374279999999997 1.2190019999999999 18.9903599999999990 C
atom 0.0885720000000010 6.5655019999999995 10.5896400000000011 C
atom 3.6556080000000013 7.7417319999999998 8.4598800000000001 C
atom 0.3703920000000004 2.3952320000000000 1.4001200000000000 C
atom 0.3703920000000004 2.3952320000000000 18.3198800000000013 C
atom 3.6556080000000013 7.7417319999999998 11.2601199999999988 C
atom 3.0718380000000014 8.8110319999999991 9.1895199999999999 C
atom 0.9541620000000005 3.4645320000000002 0.6704800000000003 C
atom 0.9541620000000005 3.4645320000000002 19.0495199999999976 C
atom 3.0718380000000014 8.8110319999999991 10.5304800000000007 C
atom 3.7562580000000012 7.7951969999999999 7.0991999999999997 C
atom 0.2697420000000004 2.4486970000000001 2.7608000000000001 C
atom 0.2697420000000004 2.4486970000000001 16.9591999999999992 C
atom 3.7562580000000012 7.7951969999999999 12.6208000000000009 C
atom 0.4026000000000011 6.8007479999999996 6.3695599999999999 C
atom 3.6234000000000002 1.4542480000000000 3.4904400000000000 C
atom 3.6234000000000002 1.4542480000000000 16.2295599999999993 C
atom 0.4026000000000011 6.8007479999999996 13.3504400000000008 C
atom 0.9380580000000009 5.6245180000000001 7.0005999999999995 C
atom 3.0879420000000000 0.2780180000000000 2.8593999999999999 C
atom 3.0879420000000000 0.2780180000000000 16.8605999999999980 C
atom 0.9380580000000009 5.6245180000000001 12.7194000000000003 C
atom 0.6441600000000011 6.9611429999999999 4.9694400000000005 C
atom 3.3818400000000000 1.6146429999999998 4.8905599999999998 C
atom 3.3818400000000000 1.6146429999999998 14.8294400000000000 C
atom 0.6441600000000011 6.9611429999999999 14.7505600000000001 C
atom 1.3728660000000010 6.0736239999999988 4.2792400000000006 C
atom 2.6531340000000001 0.7271240000000000 5.5807599999999997 C
atom 2.6531340000000001 0.7271240000000000 14.1392399999999991 C
atom 1.3728660000000010 6.0736239999999988 15.4407600000000009 C
atom 1.9324800000000006 4.9722450000000000 4.9299999999999997 C
atom 2.0935200000000016 10.3187449999999998 4.9300000000000006 C
atom 2.0935200000000016 10.3187449999999998 14.7899999999999991 C
atom 1.9324800000000006 4.9722450000000000 14.7899999999999991 C
atom 1.7432580000000006 4.7476919999999998 6.2512400000000001 C
atom 2.2827420000000016 10.0941919999999996 3.6087600000000006 C
atom 2.2827420000000016 10.0941919999999996 16.1112399999999987 C
atom 1.7432580000000006 4.7476919999999998 13.4687600000000014 C
