#=======================================================
# FHI-aims file: pahs_geometry_fix/PERLEN05.in
# Created using the Atomic Simulation Environment (ASE)
# Tue May 25 14:20:53 2021
#=======================================================
lattice_vector 10.0535988035389767 0.0000000000000000 -1.9396577268888617 
lattice_vector 0.0000000000000017 10.7859999999999996 0.0000000000000007 
lattice_vector 0.0000000000000000 0.0000000000000000 11.1319999999999997 
atom 0.1186324658817603 2.4419503999999996 1.9675136388227115 H
atom 9.9349663376572188 7.8349504000000003 1.6588286342884271 H
atom 9.9349663376572188 8.3440496000000000 7.2248286342884276 H
atom 0.1186324658817604 2.9510496000000002 7.5335136388227113 H
atom 9.0783997195956960 4.1741820000000001 -1.2839669273806420 H
atom 0.9751990839432824 9.5671819999999990 4.9103092004917812 H
atom 0.9751990839432819 6.6118179999999995 10.4763092004917802 H
atom 9.0783997195956960 1.2188180000000000 4.2820330726193578 H
atom 6.7560183959781934 4.2378194000000002 9.5435708075306849 H
atom 3.2975804075607860 9.6308194000000000 5.2147714655804531 H
atom 3.2975804075607855 6.5481805999999994 -0.3512285344195463 H
atom 6.7560183959781925 1.1551806000000000 3.9775708075306846 H
atom 4.7563575939542906 4.2043827999999994 9.2358451294088795 H
atom 5.2972412095846888 9.5973828000000001 5.5224971437022585 H
atom 5.2972412095846879 6.5816171999999993 -0.0435028562977408 H
atom 4.7563575939542897 1.1886171999999999 3.6698451294088796 H
atom 2.3223813236175048 4.3251860000000004 8.9250830650886730 H
atom 7.7312174799214750 9.7181859999999993 5.8332592080224659 H
atom 7.7312174799214741 6.4608139999999992 0.2672592080224656 H
atom 2.3223813236175039 1.0678140000000000 3.3590830650886732 H
atom 1.0827725911411483 2.5940329999999996 10.0559160628140702 H
atom 8.9708262123978297 7.9870330000000003 4.7024262102970686 H
atom 8.9708262123978297 8.1919670000000000 -0.8635737897029310 H
atom 1.0827725911411483 2.7989670000000002 4.4899160628140695 H
atom 0.8676255767454139 0.6212736000000000 0.2444915381694912 H
atom 9.1859732267935641 6.0142735999999992 3.3818507349416476 H
atom 9.1859732267935641 10.1647263999999993 8.9478507349416478 H
atom 0.8676255767454145 4.7717264000000004 5.8104915381694919 H
atom 1.8699693774582513 9.6329765999999992 1.4871356627986723 H
atom 8.1836294260807261 4.2399766000000003 2.1392066103124669 H
atom 8.1836294260807261 1.1530233999999999 7.7052066103124659 H
atom 1.8699693774582509 6.5460233999999993 7.0531356627986721 H
atom 4.2989188483932681 9.5909111999999990 1.7543395559823232 H
atom 5.7546799551457113 4.1979112000000001 1.8720027171288161 H
atom 5.7546799551457104 1.1950888000000000 7.4380027171288159 H
atom 4.2989188483932672 6.5880887999999995 7.3203395559823230 H
atom 6.2623866947244302 9.5423741999999994 2.0200672019209285 H
atom 3.7912121088145487 4.1493741999999996 1.6062750711902103 H
atom 3.7912121088145478 1.2436258000000000 7.1722750711902101 H
atom 6.2623866947244293 6.6366257999999991 7.5860672019209288 H
atom 8.5385214638456546 9.5531602000000007 2.3490366925532902 H
atom 1.5150773396933244 4.1601602000000000 1.2773055805578486 H
atom 1.5150773396933239 1.2328398000000000 6.8433055805578489 H
atom 8.5385214638456546 6.6258397999999996 7.9150366925532900 H
atom 9.9792021723927888 0.4756626000000000 1.2417497402901154 H
atom 0.0743966311461894 5.8686626000000004 2.3845925328210225 H
atom 0.0743966311461901 10.3103373999999999 7.9505925328210232 H
atom 9.9792021723927888 4.9173374000000001 6.8077497402901157 H
atom 9.1045390764848975 2.4980376000000000 -0.1557724374705527 C
atom 0.9490597270540806 7.8910375999999998 3.7821147105816921 C
atom 0.9490597270540807 8.2879623999999996 9.3481147105816920 C
atom 9.1045390764848975 2.8949624000000003 5.4102275625294478 C
atom 8.5143928267171596 3.4698561999999997 -0.9135501289021767 C
atom 1.5392059768218187 8.8628561999999995 4.5398924020133160 C
atom 1.5392059768218185 7.3161437999999999 10.1058924020133158 C
atom 8.5143928267171596 1.9231437999999998 4.6524498710978230 C
atom 7.1209640325466586 3.4903496000000001 -1.0844275679553808 C
atom 2.9326347709923208 8.8833495999999990 4.7107698410665195 C
atom 2.9326347709923208 7.2956503999999995 10.2767698410665194 C
atom 7.1209640325466577 1.9026504000000000 4.4815724320446195 C
atom 4.1953667807168156 3.5464367999999995 9.7147736305692778 C
atom 5.8582320228221638 8.9394367999999993 5.0435686425418602 C
atom 5.8582320228221629 7.2395632000000001 -0.5224313574581393 C
atom 4.1953667807168147 1.8465631999999998 4.1487736305692779 C
atom 2.8079701458284365 3.5680087999999999 9.5416191968799406 C
atom 7.2456286577105420 8.9610088000000001 5.2167230762311974 C
atom 7.2456286577105411 7.2179912000000002 -0.3492769237688021 C
atom 2.8079701458284365 1.8249911999999999 3.9756191968799408 C
atom 2.0459073565201820 2.6188407999999996 10.1428308525781166 C
atom 8.0076914470187965 8.0118407999999999 4.6155114205330223 C
atom 8.0076914470187965 8.1671592000000004 -0.9504885794669778 C
atom 2.0459073565201820 2.7741591999999997 4.5768308525781167 C
atom 1.8478514600904639 0.5630292000000000 0.3949009097978273 C
atom 8.2057473434485146 5.9560291999999997 3.2314413633133112 C
atom 8.2057473434485146 10.2229707999999988 8.7974413633133111 C
atom 1.8478514600904645 4.8299707999999999 5.9609009097978278 C
atom 2.4400084296189113 10.3459312000000008 1.0910646696840740 C
atom 7.6135903739200677 4.9529312000000001 2.5352776034270654 C
atom 7.6135903739200668 0.4400688000000000 8.1012776034270644 C
atom 2.4400084296189104 5.8330687999999995 6.6570646696840727 C
atom 3.8284104243876445 10.3168089999999992 1.2462139376007217 C
atom 6.2251883791513354 4.9238090000000003 2.3801283355104168 C
atom 6.2251883791513345 0.4691910000000000 7.9461283355104166 C
atom 3.8284104243876436 5.8621909999999993 6.8122139376007214 C
atom 6.7449594372943018 10.3017085999999995 1.6297392310302630 C
atom 3.3086393662446780 4.9087085999999998 1.9966030420808758 C
atom 3.3086393662446771 0.4842914000000000 7.5626030420808759 C
atom 6.7449594372943009 5.8772914000000007 7.1957392310302630 C
atom 8.1333614320630350 10.2898439999999987 1.7982468989469111 C
atom 1.9202373714759455 4.8968439999999998 1.8280953741642276 C
atom 1.9202373714759446 0.4961560000000000 7.3940953741642277 C
atom 8.1333614320630350 5.8891559999999998 7.3642468989469112 C
atom 8.9094992596962417 0.4713482000000000 1.2299421224310909 C
atom 1.1440995438427364 5.8643481999999993 2.3964001506800479 C
atom 1.1440995438427370 10.3146518000000000 7.9624001506800477 C
atom 8.9094992596962417 4.9216517999999994 6.7959421224310912 C
atom 8.3082940512446104 1.5024898000000000 0.4598264544990444 C
atom 1.7453047522943674 6.8954897999999991 3.1665158186120936 C
atom 1.7453047522943679 9.2835102000000003 8.7325158186120930 C
atom 8.3082940512446104 3.8905102000000000 6.0258264544990450 C
atom 6.3005903701778774 2.5454960000000000 -0.5075882974412493 C
atom 3.7530084333611016 7.9384959999999998 4.1339305705523879 C
atom 3.7530084333611016 8.2405039999999996 9.6999305705523877 C
atom 6.3005903701778783 2.8475039999999998 5.0584117025587503 C
atom 4.8357810245022472 2.5773147000000001 -0.6724865666335423 C
atom 5.2178177790367304 7.9703146999999994 4.2988288397446812 C
atom 5.2178177790367304 8.2086852999999991 9.8648288397446819 C
atom 4.8357810245022481 2.8156852999999997 4.8935134333664569 C
atom 2.6330375266468589 1.5801489999999998 -0.2096587586721928 C
atom 7.4205612768921192 6.9731489999999994 3.8360010317833315 C
atom 7.4205612768921201 9.2058510000000009 9.4020010317833318 C
atom 2.6330375266468589 3.8128509999999998 5.3563412413278080 C
atom 4.6467733669957152 0.5080206000000000 0.7087245986319680 C
atom 5.4068254365432624 5.9010205999999998 2.9176176744791706 C
atom 5.4068254365432633 10.2779793999999995 8.4836176744791700 C
atom 4.6467733669957161 4.8849793999999997 6.2747245986319680 C
atom 6.1145987923124050 0.4983132000000000 0.8953049705061944 C
atom 3.9390000112265717 5.8913131999999999 2.7310373026049439 C
atom 3.9390000112265726 10.2876867999999995 8.2970373026049451 C
atom 6.1145987923124059 4.8946867999999997 6.4613049705061947 C
atom 6.8947580594670299 1.5240618000000001 0.2872623308996188 C
atom 3.1588407440719477 6.9170617999999999 3.3390799422115203 C
atom 3.1588407440719477 9.2619381999999995 8.9050799422115201 C
atom 6.8947580594670308 3.8689382000000001 5.8532623308996188 C
atom 4.0495895980654995 1.5672058000000000 -0.0532613323908334 C
atom 6.0040092054734773 6.9602057999999998 3.6796036055019719 C
atom 6.0040092054734782 9.2187941999999996 9.2456036055019712 C
atom 4.0495895980655003 3.8257941999999998 5.5127386676091668 C
