#=======================================================
# FHI-aims file: pahs_geometry_fix/KECLAH.in
# Created using the Atomic Simulation Environment (ASE)
# Tue May 25 14:20:52 2021
#=======================================================
lattice_vector -7.9951221621953543 0.0000000000000000 1.8425861449529823 
lattice_vector 0.0000000000000000 0.0000000000000000 -16.2708000000000013 
lattice_vector -0.0000000000000034 -21.3824000000000005 -0.0000000000000013 
atom -0.6500034317864856 -18.3910022399999988 -9.4499697464153236 H
atom -7.3451187304088732 -2.9913977600000008 -4.9782441086316958 H
atom -3.3475576493111960 -7.6998022399999995 -14.0349371811081873 H
atom -4.6475645128841609 -13.6825977600000002 -0.3932766739388302 H
atom -7.7360802041402277 -17.5528121599999984 -5.6268359661434957 H
atom -0.2590419580551300 -3.8295878400000007 -8.8013778889035237 H
atom -4.2566030391528074 -6.8616121599999991 0.2553151835729677 H
atom -3.7385191230425501 -14.5207878400000006 -14.6835290386199890 H
atom -5.4654655100767471 -17.7409772799999992 -5.2031698713101404 H
atom -2.5296566521186108 -3.6414227200000004 -9.2250439837368781 H
atom -6.5272177332162880 -7.0497772799999998 -0.1683509112603858 H
atom -1.4679044289790693 -14.3326227199999998 -14.2598629437866329 H
atom -3.2644083788243661 -18.6882176000000015 -5.7787711970156961 H
atom -4.7307137833709909 -2.6941823999999976 -8.6494426580313206 H
atom -0.7331527022733153 -7.9970176000000004 -1.4353357305078107 H
atom -7.2619694599220423 -13.3853824000000010 -12.9928781245392067 H
atom -1.9236263922242065 -19.8663878400000016 -7.1876789735243136 H
atom -6.0714957699711514 -1.5160121599999992 -7.2405348815227066 H
atom -2.0739346888734760 -9.1751878400000013 -0.0264279539991957 H
atom -5.9211874733218810 -12.2072121599999992 -14.4017859010478215 H
atom -1.6294058966554164 -21.2562438399999998 -9.2226258636585836 H
atom -6.3657162655399411 -0.1261561600000004 -5.2055879913884358 H
atom -2.3681551844422657 -10.5650438399999995 -14.2622810638649273 H
atom -5.6269669777530922 -10.8173561600000010 -0.1659327911820916 H
atom -2.4816859191454381 -0.7376927999999972 -11.1983579806065965 H
atom -5.5134362430499202 -20.6447072000000027 -3.2298558744404242 H
atom -1.5158751619522417 -11.4288927999999999 -12.2865489469169145 H
atom -6.4792470002431166 -9.9535072000000007 -2.1416649081301027 H
atom -4.7347113444520890 -0.4982099199999998 -11.7188213249588440 H
atom -3.2604108177432694 -20.8841900799999998 -2.7093925300881736 H
atom -7.2579718988409443 -11.1894099199999975 -9.9234994576116833 H
atom -0.7371502633544129 -10.1929900800000013 -4.5047143974353361 H
atom -6.7238977384062926 -2.3905523200000003 -9.9147907320945432 H
atom -1.2712244237890646 -18.9918476799999993 -4.5134231229524771 H
atom -5.2687855048867407 -13.0817523199999979 -11.7275300504759858 H
atom -2.7263366573086167 -8.3006476800000009 -2.7006838045710340 H
atom -5.9195884488894412 -4.4432627199999999 -10.6907849382768134 H
atom -2.0755337133059171 -16.9391372800000006 -3.7374289167702068 H
atom -6.0730947944035938 -15.1344627200000001 -10.9515358442937174 H
atom -1.9220273677917648 -6.2479372800000004 -3.4766780107533037 H
atom -5.6277664899693107 -4.7982105600000011 -12.9773764525675972 H
atom -2.3673556722260471 -16.5841894399999994 -1.4508374024794217 H
atom -6.3649167533237243 -15.4894105599999996 -8.6649443300029336 H
atom -1.6302054088716333 -5.8929894399999991 -5.7632695250440866 H
atom -6.0619016233765182 -3.0640979199999974 -14.4881332248966501 H
atom -1.9332205388188397 -18.3183020800000023 0.0599193698496309 H
atom -5.9307816199165160 -13.7552979200000003 -7.1541875576738780 H
atom -2.0643405422788419 -7.6271020800000002 -7.2740262973731404 H
atom -6.8174406677039787 -0.9964198399999971 -13.7103621541985934 H
atom -1.1776814944913789 -20.3859801600000026 -0.7178517008484264 H
atom -5.1752425755890545 -11.6876198400000000 -7.9319586283719357 H
atom -2.8198795866063033 -9.6947801600000005 -6.4962552266750855 H
atom -7.8480119144109626 -16.7295897599999996 -10.3537404401141568 H
atom -0.1471102477843950 -4.6528102400000009 -4.0744734149328643 H
atom -4.1446713288820725 -6.0383897599999994 -11.2885803424563740 H
atom -3.8504508333132854 -15.3440102400000011 -3.1396335125906458 H
atom -0.9146419753551505 -14.7175059200000007 -11.6912983450173815 H
atom -7.0804801868402061 -6.6648940799999998 -2.7369155100296392 H
atom -3.0829191057425294 -4.0263059200000004 -11.7936085825061294 H
atom -4.9122030564528290 -17.3560940799999983 -2.6346052725408895 H
atom -3.0741244713641156 -14.7239206399999993 -10.8096249472655810 H
atom -4.9209976908312409 -6.6584793600000003 -3.6185889077814406 H
atom -0.9234366097335645 -4.0327206400000000 -12.6752819802579317 H
atom -7.0716855524617932 -17.3496793599999997 -1.7529318747890881 H
atom -4.1670576709362210 -16.7573868799999985 -10.4243228612505074 H
atom -3.8280644912591364 -4.6250131200000011 -4.0038909937965128 H
atom -7.8256255723568140 -6.0661868799999965 -11.2179979213200216 H
atom -0.1694965898385440 -15.3162131199999987 -3.2102159337269960 H
atom -3.1332883753643626 -18.7651942399999996 -10.9765956897929282 H
atom -4.8618337868309949 -2.6172057599999965 -3.4516181652540925 H
atom -0.8642727057333189 -8.0739942400000011 -12.5083112377305845 H
atom -7.1308494564620384 -13.3084057600000012 -1.9199026173164357 H
atom -2.9342098335256983 -18.7972678399999999 -13.4012670448022586 H
atom -5.0609123286696596 -2.5851321600000001 -1.0269468102447630 H
atom -1.0633512475719835 -8.1060678399999997 -10.0836398827212541 H
atom -6.9317709146233737 -13.2763321600000008 -4.3445739723257635 H
atom -1.1081239316802758 -1.5822975999999991 -14.5282664403095172 H
atom -6.8869982305150819 -19.8001024000000001 0.1000525852624971 H
atom -2.8894371494174034 -12.2734976000000024 -8.9566404872139920 H
atom -5.1056850127779558 -9.1089024000000016 -5.4715733678330265 H
atom -4.5564201202351358 -17.6041299200000019 0.2804810040087035 H
atom -3.4387020419602226 -3.7782700799999969 -14.7086948590557238 H
atom -7.4362631230579002 -6.9129299200000007 -5.6520017865792314 H
atom -0.5588590391374573 -14.4694700800000025 -8.7762120684677853 H
atom -5.8124538119160247 -15.7438611200000000 0.9360442873808165 H
atom -2.1826683502793327 -5.6385388800000014 -15.3642581424278362 H
atom -6.1802294313770103 -5.0526611199999989 -6.3075650699513446 H
atom -1.8148927308183480 -16.3297388800000007 -8.1206487850956748 H
atom -7.2315879957057003 -15.8764319999999994 -13.4977664318900299 H
atom -0.7635341664896574 -5.5059679999999993 -0.9304474231569897 H
atom -4.7610952475873338 -5.1852320000000010 -8.1445543506805009 H
atom -3.2340269146080232 -16.1971680000000013 -6.2836595043665211 H
atom -7.4098792199226571 -17.8778246400000036 -12.3226020008575805 H
atom -0.5852429422727008 -3.5045753600000009 -2.1056118541894424 H
atom -4.5828040233703771 -7.1866246399999989 -9.3197187817129503 H
atom -3.4123181388249790 -14.1957753599999990 -5.1084950733340682 H
atom -6.1418528449984748 -19.7231257600000021 -12.9516417234471213 H
atom -1.8532693171968835 -1.6592742399999978 -1.4765721315998988 H
atom -5.8508303982945620 -9.0319257600000000 -8.6906790591234078 H
atom -2.1442917639007959 -12.3504742400000005 -5.7375347959236116 H
atom -7.7144933743023003 -18.4925686400000018 -7.4437272367348681 C
atom -0.2806287878930576 -2.8898313599999974 -6.9844866183121503 C
atom -4.2781898689907347 -7.8013686400000006 -14.1985935458356600 C
atom -3.7169322932046232 -13.5810313600000008 -0.2296203092113599 C
atom -7.1724240917054551 -17.9907237120000012 -6.2541366453626814 C
atom -0.8226980704899024 -3.3916762879999998 -8.1740772096843379 C
atom -4.8202591515875799 -7.2995237120000009 0.8826158627921528 C
atom -3.1748630106077775 -14.0828762879999996 -15.3108297178391730 C
atom -5.8356396661863918 -18.1271434240000033 -5.9883459327988193 C
atom -2.1594824960089656 -3.2552565760000012 -8.4398679222482009 C
atom -6.1570435771066432 -7.4359434239999995 0.6168251502282910 C
atom -1.8380785850887140 -13.9464565759999992 -15.0450390052753100 C
atom -5.0169391567775872 -18.8370391039999987 -6.8734169940420058 C
atom -2.9781830054177703 -2.5453608960000009 -7.5547968610050136 C
atom -6.9757440865154479 -8.1458391040000002 1.5018962114714793 C
atom -1.0193780756799096 -13.2365608960000003 -15.9301100665184965 C
atom -3.6313844860691336 -19.0521460480000009 -6.5757484369623569 C
atom -4.3637376761262248 -2.3302539519999992 -7.8524654180846634 C
atom -0.3661765950285482 -8.3609460480000006 -0.6383584905611526 C
atom -7.6289455671668094 -13.0214539519999999 -13.7898553644858648 C
atom -2.8422659286604519 -19.7579790720000013 -7.4029116174692167 C
atom -5.1528562335349068 -1.6244209279999997 -7.0253022375778027 C
atom -1.1552951524372308 -9.0667790720000010 0.1888046899457075 C
atom -6.8398270097581273 -12.3156209279999977 -14.6170185449927246 C
atom -3.3571517959058337 -20.3530512640000012 -8.6038109497342461 C
atom -4.6379703662895251 -1.0293487359999991 -5.8244029053127759 C
atom -0.6404092851918490 -9.6618512640000009 -14.8810959777892666 C
atom -7.3547128770035082 -11.7205487360000014 0.4528821227422480 C
atom -2.5408498231456877 -21.1121264639999993 -9.4481403591339461 C
atom -5.4542723390496697 -0.2702735359999997 -4.9800734959130750 C
atom -1.4567112579519956 -10.4209264640000008 -14.0367665683895666 C
atom -6.5384109042433627 -10.9614735359999997 -0.3914472866574510 C
atom -3.0533371537424059 -0.2670661760000000 -10.6032206872424570 C
atom -4.9417850084529515 -21.1153338240000004 -3.8249931678045637 C
atom -0.9442239273552729 -10.9582661760000004 -12.8816862402810539 C
atom -7.0508982348400853 -10.4241338240000001 -1.5465276147659655 C
atom -4.4045127991534203 -0.1274391039999992 -10.9086496567454034 C
atom -3.5906093630419376 -21.2549608960000000 -3.5195641983016155 C
atom -7.5881704441396129 -10.8186391039999990 -10.7336711258251256 C
atom -0.4069517180557448 -10.5637608960000016 -3.6945427292218938 C
atom -5.2871742858597912 -20.8399285120000002 -10.0578130143425959 C
atom -2.7079478763355667 -0.5424714880000001 -4.3704008407044252 C
atom -6.7055089574332456 -10.1487285119999999 -11.5845077682279349 C
atom -1.2896132047621125 -11.2336714880000006 -2.8437060868190849 C
atom -4.7403079299656286 -20.1849856000000010 -8.9199301626573799 C
atom -3.2548142322297298 -1.1974143999999987 -5.5082836923896394 C
atom -7.2523753133274083 -9.4937855999999989 -12.7223906199131509 C
atom -0.7427468488679502 -11.8886143999999998 -1.7058232351338691 C
atom -5.5694020981852876 -19.3792967679999997 -8.0684222074257548 C
atom -2.4257200640100711 -2.0031032320000000 -6.3597916476212655 C
atom -6.4232811451077492 -8.6880967680000012 -13.5738985751447743 C
atom -1.5718410170876087 -12.6943032319999993 -0.8543152799022447 C
atom -6.9261743291098377 -19.1355374079999976 -8.3937134066272332 C
atom -1.0689478330855195 -2.2468625919999989 -6.0345004484197871 C
atom -5.0665089141831974 -8.4443374080000009 -13.2486073759432976 C
atom -2.9286132480121601 -12.9380625919999996 -1.1796064791037213 C
atom -7.4890309293283917 -19.6638965120000009 -9.6637722660225442 C
atom -0.5060912328669663 -1.7185034879999987 -4.7644415890244760 C
atom -4.5036523139646452 -8.9726965119999988 -11.9785485165479848 C
atom -3.4914698482307127 -12.4097034879999999 -2.4496653384990341 C
atom -6.7438855438117855 -20.7325888640000002 -10.3304590307321629 C
atom -1.2512366183835728 -0.6498111360000006 -4.0977548243148583 C
atom -5.2487976994812513 -10.0413888640000000 -11.3118617518383680 C
atom -2.7463244627141061 -11.3410111359999988 -3.1163521032086519 C
atom -7.4098792199226544 -0.1939383680000005 -11.2096792808575767 C
atom -0.5852429422727037 -21.1884616319999992 -3.2185345741894404 C
atom -4.5828040233703780 -10.8851383680000016 -10.4326415017129506 C
atom -3.4123181388249786 -10.4972616319999990 -3.9955723533340688 C
atom -6.8414260341905644 -1.4768823679999969 -11.7303728157637330 C
atom -1.1536961280047935 -19.9055176320000022 -2.6978410392832868 C
atom -5.1512572091024689 -12.1680823680000003 -9.9119479668067942 C
atom -2.8438649530928890 -9.2143176320000002 -4.5162658882402251 C
atom -6.5807850517029953 -2.5190605439999971 -10.8446195200891999 C
atom -1.4143371104923608 -18.8633394560000021 -3.5835943349578199 C
atom -5.4118981915900379 -13.2102605440000005 -10.7977012624813273 C
atom -2.5832239706053208 -8.1721394559999982 -3.6305125925656911 C
atom -6.1130704052145681 -3.7474794239999971 -11.3074396655689515 C
atom -1.8820517569807897 -17.6349205760000025 -3.1207741894780687 C
atom -5.8796128380784669 -14.4386794240000000 -10.3348811170015775 C
atom -2.1155093241168919 -6.9437205760000005 -4.0933327380454418 C
atom -5.9307816199165151 -3.9555301759999999 -12.6607144016738804 C
atom -2.0643405422788432 -17.4268698240000006 -1.7674994533731421 C
atom -6.0619016233765199 -14.6467301760000002 -8.9816063808966504 C
atom -1.9332205388188379 -6.7356698240000004 -5.4466074741503663 C
atom -6.1922221146203027 -2.9263952639999995 -13.5570221667339155 C
atom -1.8029000475750556 -18.4560047360000006 -0.8711916883131042 C
atom -5.8004611286727314 -13.6175952640000002 -8.0852986158366118 C
atom -2.1946610335226260 -7.7648047360000003 -6.3429152392104076 C
atom -6.6423474923519006 -1.6962657920000004 -13.0925609307730628 C
atom -1.3527746698434573 -19.6861342079999986 -1.3356529242739559 C
atom -5.3503357509411327 -12.3874657920000004 -8.5497598517974662 C
atom -2.6447864112542243 -8.9949342080000001 -5.8784540032495558 C
atom -0.7563385565436841 -21.2673626879999986 -13.4773806746874492 C
atom -7.2387836056516734 -0.1150373120000011 -0.9508331803595691 C
atom -3.2412225245539981 -10.5761626879999984 -10.0075262528360636 C
atom -4.7538996376413598 -10.8062373119999986 -4.4206876022109594 C
atom -1.3511756454110182 -20.0134987520000003 -13.0677563655029481 C
atom -6.6439465167843403 -1.3689012479999993 -1.3604574895440715 C
atom -2.6463854356866632 -9.3222987520000018 -10.4171505620205611 C
atom -5.3487367265086938 -12.0601012479999987 -4.0110632930264565 C
atom -0.7019717258407552 -19.2358208640000008 -12.0361142804731305 C
atom -7.2931504363546020 -2.1465791359999997 -2.3920995745738898 C
atom -3.2955893552569266 -8.5446208640000005 -11.4487926470503822 C
atom -4.6995328069384312 -12.8377791360000000 -2.9794212079966385 C
atom -1.3783590607624820 -17.9588639360000002 -11.6376338646101072 C
atom -6.6167631014328760 -3.4235360639999994 -2.7905799904369117 C
atom -2.6192020203351993 -7.2676639359999982 -11.8472730629134038 C
atom -5.3759201418601590 -14.1147360640000006 -2.5809407921336165 C
atom -0.7347517267057556 -16.7396394879999981 -11.8435606812788237 C
atom -7.2603704354896026 -4.6427605120000015 -2.5846531737681970 C
atom -3.2628093543919250 -6.0484394879999988 -11.6413462462446891 C
atom -4.7323128078034324 -15.3339605120000009 -2.7868676088023312 C
atom -1.3639678408705296 -15.5417974399999999 -11.5397461436710245 C
atom -6.6311543213248276 -5.8406025600000007 -2.8884677113759949 C
atom -2.6335932402271509 -4.8505974399999996 -11.9451607838524883 C
atom -5.3615289219682074 -16.5318025599999991 -2.4830530711945320 C
atom -2.6415883623893488 -15.5450047999999992 -11.0173469697075355 C
atom -5.3535337998060095 -5.8373952000000005 -3.4108668853394848 C
atom -1.3559727187083328 -4.8538047999999971 -12.4675599578159737 C
atom -6.6391494434870255 -16.5285951999999980 -1.9606538972310441 C
atom -3.2931908186082697 -16.7524689279999990 -10.7955846788938690 C
atom -4.7019313435870895 -4.6299310719999998 -3.6326291761531517 C
atom -0.7043702624894114 -6.0612689280000005 -12.6893222486296438 C
atom -7.2907518997059464 -15.3211310720000000 -1.7388916064173763 C
atom -2.6735688510381292 -17.9458206720000000 -11.1144351611277266 C
atom -5.3215533111572295 -3.4365793279999997 -3.3137786939192946 C
atom -1.3239922300595515 -7.2546206720000006 -12.3704717663957862 C
atom -6.6711299321358064 -14.1277793279999990 -2.0577420886512336 C
atom -2.5752288484431269 -19.6499979519999997 -13.6159553507106477 C
atom -5.4198933137522314 -1.7324020479999995 -0.8122585043363730 C
atom -1.4223322326545544 -8.9587979520000012 -9.8689515768128651 C
atom -6.5727899295408028 -12.4236020479999976 -4.5592622782341552 C
atom -3.3091810629326606 -20.4926783360000009 -14.4793509106039640 C
atom -4.6859410992626973 -0.8897216639999984 0.0511370555569427 C
atom -0.6883800181650211 -9.8014783359999988 -9.0055560169195488 C
atom -7.3067421440303368 -11.5809216639999981 -5.4226578381274688 C
atom -2.7439259260654461 -0.3949329279999997 -14.8299283830521382 C
atom -5.2511962361299123 -20.9874670720000012 0.4017145280051191 C
atom -1.2536351550322338 -11.0861329279999996 -8.6549785444713727 C
atom -6.7414870071631245 -10.2962670720000009 -5.7732353105756467 C
atom -1.4798971122223608 -0.7370513280000001 -14.3059114645692045 C
atom -6.5152250499729973 -20.6453486720000008 -0.1223023904778162 C
atom -2.5176639688753184 -11.4282513280000000 -9.1789954629543065 C
atom -5.4774581933200395 -9.9541486720000005 -5.2492183920927129 C
atom -4.5636157301811116 -20.1167757440000017 -14.9943520804608408 C
atom -3.4315064320142463 -1.2656242559999993 0.5661382254138202 C
atom -7.4290675131119253 -9.4255757440000014 -6.6479687021096900 C
atom -0.5660546490834327 -11.9568242560000026 -7.7802451529373302 C
atom -5.2416020895352773 -18.8626979840000004 -14.5468534553688276 C
atom -2.7535200726600806 -2.5197020159999988 0.1186396003218068 C
atom -6.7510811537577586 -8.1714979840000019 -7.0954673272017033 C
atom -1.2440410084375990 -13.2109020159999986 -7.3327465278453170 C
atom -5.1384650136429570 -17.6665665280000006 1.0285185593612829 C
atom -2.8566571485523999 -3.7158334719999986 -15.4567324144083020 C
atom -6.8542182296500780 -6.9753665279999995 -6.4000393419318096 C
atom -1.1409039325452797 -14.4070334720000020 -8.0281745131152107 C
atom -5.8852094235920029 -16.5570337919999986 -14.8492264307001136 C
atom -2.1099127386033549 -4.8253662080000010 0.4210125756530943 C
atom -6.1074738197010321 -5.8658337919999992 -6.7930943518704181 C
atom -1.8876483424943253 -15.5165662080000004 -7.6351195031766030 C
atom -6.7246972506225147 -16.6329413119999998 -13.7654167094800499 C
atom -1.2704249115728428 -4.7494586879999998 -0.6627971455669707 C
atom -5.2679859926705204 -5.9417413120000004 -7.8769040730904800 C
atom -2.7271361695248375 -15.4406586879999992 -6.5513097819565402 C
atom -6.8246362776499572 -17.8166709760000010 -13.0695868026681374 C
atom -1.1704858845454003 -3.5657290239999981 -1.3586270523788828 C
atom -5.1680469656430779 -7.1254709759999972 -8.5727339799023916 C
atom -2.8270751965522796 -14.2569290240000015 -5.8554798751446260 C
atom -6.0778918677009113 -18.9187198720000005 -13.4510895446067451 C
atom -1.9172302944944466 -2.4636801280000000 -0.9771243104402753 C
atom -5.9147913755921238 -8.2275198720000002 -8.1912312379637839 C
atom -2.0803307866032332 -13.1548801280000003 -6.2369826170832354 C
