#=======================================================
# FHI-aims file: pahs_geometry_fix/TRIPHE12.in
# Created using the Atomic Simulation Environment (ASE)
# Tue May 25 14:20:53 2021
#=======================================================
lattice_vector 5.2800000000000002 0.0000000000000000 0.0000000000000003 
lattice_vector 0.0000000000000021 12.9719999999999995 0.0000000000000008 
lattice_vector 0.0000000000000000 0.0000000000000000 16.7070000000000007 
atom 3.1949280000000009 4.4364240000000006 9.1320462000000013 H
atom 4.7250720000000017 8.5355760000000007 0.7785462000000009 H
atom 2.0850720000000016 10.9224239999999995 15.9284538000000016 H
atom 0.5549280000000003 2.0495760000000001 7.5749538000000012 H
atom 1.5370080000000008 4.6063572000000006 10.7492838000000006 H
atom 1.1029920000000013 8.3656427999999998 2.3957838000000007 H
atom 3.7429920000000019 11.0923571999999986 14.3112162000000023 H
atom 4.1770080000000007 1.8796427999999998 5.9577162000000001 H
atom 0.0733920000000010 6.4418951999999994 10.7375889000000022 H
atom 2.5666080000000009 6.5301047999999993 2.3840889000000005 H
atom 5.2066080000000019 12.9278952000000000 14.3229111000000007 H
atom 2.7133920000000002 0.0441048000000000 5.9694111000000003 H
atom 0.2698080000000013 8.0724755999999989 9.0969615000000008 H
atom 2.3701920000000012 4.8995243999999998 0.7434615000000004 H
atom 5.0101920000000000 1.5864756000000000 15.9635385000000021 H
atom 2.9098080000000022 11.3855243999999995 7.6100385000000017 H
atom 0.3511200000000015 9.4072943999999996 7.5933315000000015 H
atom 2.2888800000000007 3.5647055999999999 15.9468315000000018 H
atom 4.9288800000000013 2.9212943999999998 0.7601685000000005 H
atom 2.9911200000000018 10.0507056000000006 9.1136685000000011 H
atom 0.4033920000000017 10.9146408000000008 5.8374258000000010 H
atom 2.2366080000000004 2.0573591999999996 14.1909258000000023 H
atom 4.8766080000000009 4.4286407999999993 2.5160742000000007 H
atom 3.0433920000000017 8.5433591999999994 10.8695742000000006 H
atom 2.0053440000000018 10.6759559999999993 4.1416653000000014 H
atom 0.6346560000000003 2.2960439999999998 12.4951653000000000 H
atom 3.2746560000000011 4.1899559999999996 4.2118347000000007 H
atom 4.6453440000000024 8.7820440000000008 12.5653347000000011 H
atom 3.5164800000000018 8.9208444000000000 4.2084933000000015 H
atom 4.4035200000000012 4.0511556000000004 12.5619933000000010 H
atom 1.7635200000000006 2.4348443999999998 4.1450067000000006 H
atom 0.8764800000000017 10.5371556000000002 12.4985067000000019 H
atom 4.8417600000000016 7.4083092000000006 4.2820041000000009 H
atom 3.0782400000000010 5.5636907999999998 12.6355041000000003 H
atom 0.4382400000000002 0.9223091999999999 4.0714959000000004 H
atom 2.2017600000000019 12.0496907999999987 12.4249959000000025 H
atom 1.0866240000000009 5.6557919999999999 4.3588563000000011 H
atom 1.5533760000000012 7.3162079999999987 12.7123563000000015 H
atom 4.1933760000000024 12.1417920000000006 3.9946437000000015 H
atom 3.7266240000000002 0.8302079999999999 12.3481436999999996 H
atom 0.9672960000000007 4.0822883999999995 6.0897015000000003 H
atom 1.6727040000000015 8.8897116000000000 14.4432015000000025 H
atom 4.3127040000000019 10.5682884000000001 2.2637985000000014 H
atom 3.6072960000000007 2.4037115999999998 10.6172985000000004 H
atom 4.6305600000000009 4.2833543999999995 7.7370117000000009 H
atom 3.2894400000000017 8.6886455999999992 16.0905117000000004 H
atom 0.6494400000000018 10.7693544000000010 0.6164883000000008 H
atom 1.9905600000000006 2.2026455999999999 8.9699883000000007 H
atom 2.5945920000000009 5.1719363999999999 9.1086564000000010 C
atom 0.0454080000000013 7.8000635999999988 0.7551564000000005 C
atom 2.6854080000000020 11.6579364000000005 15.9518436000000019 C
atom 5.2345920000000001 1.3140635999999999 7.5983436000000006 C
atom 1.6156800000000009 5.2757123999999997 10.0793330999999995 C
atom 1.0243200000000015 7.6962876000000007 1.7258331000000007 C
atom 3.6643200000000018 11.7617123999999986 14.9811669000000016 C
atom 4.2556800000000008 1.2102875999999998 6.6276669000000004 C
atom 0.7439520000000011 6.3640631999999995 10.0709796000000011 C
atom 1.8960480000000011 6.6079367999999992 1.7174796000000006 C
atom 4.5360480000000019 12.8500631999999992 14.9895204000000017 C
atom 3.3839520000000003 0.1219368000000000 6.6360204000000005 C
atom 0.8595840000000012 7.3265855999999996 9.0892762800000000 C
atom 1.7804160000000009 5.6454143999999991 0.7357762800000005 C
atom 4.4204160000000003 0.8405855999999999 15.9712237200000011 C
atom 3.4995840000000018 12.1314144000000006 7.6177237200000008 C
atom 0.9984480000000014 9.2996267999999986 6.9066738000000010 C
atom 1.6415520000000008 3.6723732000000000 15.2601738000000005 C
atom 4.2815520000000005 2.8136268000000002 1.4468262000000005 C
atom 3.6384480000000021 10.1583731999999998 9.8003262000000007 C
atom 1.0274880000000015 10.1985863999999999 5.8674984000000014 C
atom 1.6125120000000006 2.7734135999999996 14.2209984000000009 C
atom 4.2525120000000012 3.7125864000000002 2.4860016000000003 C
atom 3.6674880000000014 9.2594136000000002 10.8395016000000020 C
atom 1.9773600000000016 10.0558943999999997 4.8583956000000006 C
atom 0.6626400000000005 2.9161055999999999 13.2118956000000001 C
atom 3.3026400000000002 3.5698943999999999 3.4951044000000007 C
atom 4.6173600000000024 9.4021056000000005 11.8486044000000028 C
atom 2.8770720000000019 9.0103511999999988 4.9035045000000004 C
atom 5.0429280000000007 3.9616487999999999 13.2570045000000007 C
atom 2.4029280000000006 2.5243511999999999 3.4499955000000004 C
atom 0.2370720000000017 10.4476487999999996 11.8034955000000021 C
atom 4.7968800000000007 6.7817616000000003 4.9937223000000008 C
atom 3.1231200000000010 6.1902384000000001 13.3472223000000021 C
atom 0.4831200000000000 0.2957616000000000 3.3597777000000004 C
atom 2.1568800000000024 12.6762383999999990 11.7132777000000008 C
atom 0.4213440000000009 5.7362183999999994 5.0321484000000014 C
atom 2.2186560000000015 7.2357815999999993 13.3856484000000009 C
atom 4.8586560000000025 12.2222184000000009 3.3213516000000012 C
atom 3.0613440000000001 0.7497815999999999 11.6748516000000002 C
atom 0.3511200000000008 4.8035316000000003 6.0612996000000008 C
atom 2.2888800000000016 8.1684684000000001 14.4147996000000020 C
atom 4.9288800000000021 11.2895315999999983 2.2922004000000009 C
atom 2.9911200000000004 1.6824684000000001 10.6457004000000008 C
atom 4.6685760000000007 4.9280628000000002 7.0403298000000012 C
atom 3.2514240000000014 8.0439372000000002 15.3938298000000007 C
atom 0.6114240000000020 11.4140628000000000 1.3131702000000010 C
atom 2.0285760000000006 1.5579372000000000 9.6666702000000004 C
atom 2.7223680000000008 6.1318643999999995 8.0861879999999999 C
atom 5.1976320000000014 6.8401356000000000 16.4396880000000003 C
atom 2.5576320000000021 12.6178644000000002 0.2673120000000009 C
atom 0.0823680000000001 0.3541356000000000 8.6208120000000008 C
atom 1.8358560000000013 7.2292956000000004 8.0713187700000013 C
atom 0.8041440000000009 5.7427043999999992 16.4248187700000017 C
atom 3.4441440000000001 0.7432955999999999 0.2821812300000002 C
atom 4.4758560000000021 12.2287043999999998 8.6356812300000012 C
atom 1.9066080000000012 8.2203564000000000 6.9816882300000005 C
atom 0.7333920000000008 4.7516436000000004 15.3351882300000000 C
atom 3.3733920000000008 1.7343564000000000 1.3718117700000003 C
atom 4.5466080000000018 11.2376435999999984 9.7253117700000011 C
atom 2.8702080000000012 8.0698811999999993 5.9610576000000011 C
atom 5.0497920000000009 4.9021188000000002 14.3145576000000005 C
atom 2.4097920000000004 1.5838812000000000 2.3924424000000002 C
atom 0.2302080000000019 11.3881187999999991 10.7459424000000006 C
atom 3.8111040000000016 6.9426144000000001 5.9861181000000014 C
atom 4.1088960000000014 6.0293855999999995 14.3396181000000009 C
atom 1.4688960000000000 0.4566144000000000 2.3673819000000003 C
atom 1.1711040000000021 12.5153856000000001 10.7208819000000020 C
atom 3.7361280000000012 5.9917667999999997 7.0309738800000003 C
atom 4.1838720000000009 6.9802331999999998 15.3844738800000016 C
atom 1.5438720000000021 12.4777667999999995 1.3225261200000009 C
atom 1.0961280000000000 0.4942332000000000 9.6760261200000013 C
