# 
# This is the geometry file that corresponds to the current relaxation step.
# If you do not want this file to be written, set the "write_restart_geometry" flag to .false.
#  aims_uuid : D5499DE5-265B-4E4F-A56E-394FC13A1038                                
# 
lattice_vector     12.23500000      0.00000000      0.00000000
lattice_vector      0.00000000     15.72600000      0.00000000
lattice_vector      0.00000000      0.00000000     23.25600000
atom       3.68309245     15.62397111      1.68511422 H
atom       8.55190755      0.10202889     21.57088578 H
atom       2.43440755      0.10202889     13.31311422 H
atom       9.80059245     15.62397111      9.94288578 H
atom       8.55190755      7.76097111      9.94288578 H
atom       3.68309245      7.96502889     13.31311422 H
atom       9.80059245      7.96502889     21.57088578 H
atom       2.43440755      7.76097111      1.68511422 H
atom       1.66863543      1.20381021      1.15193581 H
atom      10.56636457     14.52218979     22.10406419 H
atom       4.44886457     14.52218979     12.77993581 H
atom       7.78613543      1.20381021     10.47606419 H
atom      10.56636457      9.06681021     10.47606419 H
atom       1.66863543      6.65918979     12.77993581 H
atom       7.78613543      6.65918979     22.10406419 H
atom       4.44886457      9.06681021      1.15193581 H
atom       0.39062077      2.31916621      2.94685303 H
atom      11.84437923     13.40683379     20.30914697 H
atom       5.72687924     13.40683379     14.57485303 H
atom       6.50812076      2.31916621      8.68114697 H
atom      11.84437924     10.18216621      8.68114697 H
atom       0.39062076      5.54383379     14.57485303 H
atom       6.50812077      5.54383379     20.30914697 H
atom       5.72687923     10.18216621      2.94685303 H
atom       0.12545624      2.92172619      5.31635629 H
atom      12.10954376     12.80427381     17.93964371 H
atom       5.99204377     12.80427381     16.94435630 H
atom       6.24295623      2.92172619      6.31164370 H
atom      12.10954377     10.78472619      6.31164370 H
atom       0.12545623      4.94127381     16.94435630 H
atom       6.24295624      4.94127381     17.93964371 H
atom       5.99204376     10.78472619      5.31635629 H
atom       0.93026884      2.83862391      7.59973768 H
atom      11.30473116     12.88737609     15.65626232 H
atom       5.18723116     12.88737610     19.22773768 H
atom       7.04776884      2.83862390      4.02826232 H
atom      11.30473116     10.70162390      4.02826232 H
atom       0.93026884      5.02437610     19.22773768 H
atom       7.04776884      5.02437609     15.65626232 H
atom       5.18723116     10.70162391      7.59973768 H
atom       1.94824212      3.15393847      9.26810395 H
atom      10.28675788     12.57206153     13.98789605 H
atom       4.16925788     12.57206153     20.89610396 H
atom       8.06574212      3.15393847      2.35989604 H
atom      10.28675788     11.01693847      2.35989604 H
atom       1.94824212      4.70906153     20.89610396 H
atom       8.06574212      4.70906153     13.98789605 H
atom       4.16925788     11.01693847      9.26810395 H
atom       2.78988665      3.04273724     11.55866223 H
atom       9.44511335     12.68326276     11.69733777 H
atom       3.32761335     12.68326276     23.18666223 H
atom       8.90738665      3.04273724      0.06933777 H
atom       9.44511335     10.90573724      0.06933777 H
atom       2.78988665      4.82026276     23.18666223 H
atom       8.90738665      4.82026276     11.69733777 H
atom       3.32761335     10.90573724     11.55866223 H
atom       4.59489096      1.44689545     12.13065111 H
atom       7.64010904     14.27910455     11.12534889 H
atom       1.52260904     14.27910455      0.50265111 H
atom      10.71239096      1.44689545     22.75334889 H
atom       7.64010904      9.30989545     22.75334889 H
atom       4.59489096      6.41610455      0.50265111 H
atom      10.71239096      6.41610455     11.12534889 H
atom       1.52260904      9.30989545     12.13065111 H
atom       5.46169031     15.64147986     10.44559928 H
atom       6.77330969      0.08452014     12.81040072 H
atom       0.65580969      0.08452014     22.07359929 H
atom      11.57919031     15.64147986      1.18240071 H
atom       6.77330969      7.77847986      1.18240071 H
atom       5.46169031      7.94752014     22.07359929 H
atom      11.57919031      7.94752014     12.81040072 H
atom       0.65580969      7.77847986     10.44559928 H
atom       4.56576528     13.76616506     10.04957432 H
atom       7.66923472      1.95983494     13.20642568 H
atom       1.55173472      1.95983493     21.67757432 H
atom      10.68326528     13.76616507      1.57842568 H
atom       7.66923472      5.90316507      1.57842568 H
atom       4.56576528      9.82283493     21.67757432 H
atom      10.68326528      9.82283494     13.20642568 H
atom       1.55173472      5.90316506     10.04957432 H
atom       6.11804689     11.93122923     10.58893795 H
atom       6.11695311      3.79477077     12.66706205 H
atom      12.23445310      3.79477076     22.21693795 H
atom       0.00054690     11.93122924      1.03906205 H
atom       6.11695310      4.06822924      1.03906205 H
atom       6.11804690     11.65777076     22.21693795 H
atom       0.00054689     11.65777077     12.66706205 H
atom      12.23445311      4.06822923     10.58893795 H
atom       7.96486947     11.36135407      9.04134432 H
atom       4.27013053      4.36464593     14.21465568 H
atom      10.38763053      4.36464592     20.66934433 H
atom       1.84736947     11.36135408      2.58665567 H
atom       4.27013053      3.49835408      2.58665567 H
atom       7.96486947     12.22764592     20.66934433 H
atom       1.84736947     12.22764593     14.21465568 H
atom      10.38763053      3.49835407      9.04134432 H
atom       9.09226401     11.68895180      6.90139734 H
atom       3.14273599      4.03704820     16.35460266 H
atom       9.26023599      4.03704819     18.52939736 H
atom       2.97476401     11.68895181      4.72660264 H
atom       3.14273599      3.82595181      4.72660264 H
atom       9.09226401     11.90004819     18.52939736 H
atom       2.97476401     11.90004820     16.35460266 H
atom       9.26023599      3.82595180      6.90139734 H
atom       9.25837344     12.84469780      4.73947334 H
atom       2.97662656      2.88130220     18.51652666 H
atom       9.09412655      2.88130219     16.36747336 H
atom       3.14087345     12.84469781      6.88852664 H
atom       2.97662655      4.98169781      6.88852664 H
atom       9.25837345     10.74430219     16.36747336 H
atom       3.14087344     10.74430220     18.51652666 H
atom       9.09412656      4.98169780      4.73947334 H
atom       7.55572370     14.44341100      4.05438776 H
atom       4.67927630      1.28258900     19.20161224 H
atom      10.79677629      1.28258899     15.68238777 H
atom       1.43822371     14.44341101      7.57361223 H
atom       4.67927629      6.58041101      7.57361223 H
atom       7.55572371      9.14558899     15.68238777 H
atom       1.43822370      9.14558900     19.20161224 H
atom      10.79677630      6.58041100      4.05438776 H
atom       4.83277015     12.66855158      3.27106099 H
atom       7.40222985      3.05744842     19.98493901 H
atom       1.28472984      3.05744842     14.89906101 H
atom      10.95027016     12.66855158      8.35693899 H
atom       7.40222984      4.80555158      8.35693899 H
atom       4.83277016     10.92044842     14.89906101 H
atom      10.95027015     10.92044842     19.98493901 H
atom       1.28472985      4.80555158      3.27106099 H
atom       6.17753778     11.72173153      1.43328417 H
atom       6.05746222      4.00426847     21.82271583 H
atom      12.17496221      4.00426847     13.06128417 H
atom       0.06003779     11.72173153     10.19471583 H
atom       6.05746221      3.85873153     10.19471583 H
atom       6.17753779     11.86726847     13.06128417 H
atom       0.06003778     11.86726847     21.82271583 H
atom      12.17496222      3.85873153      1.43328417 H
atom       7.67453335     13.16753511      0.10880816 H
atom       4.56046665      2.55846489     23.14719184 H
atom      10.67796665      2.55846489     11.73680817 H
atom       1.55703335     13.16753511     11.51919183 H
atom       4.56046665      5.30453511     11.51919183 H
atom       7.67453335     10.42146489     11.73680817 H
atom       1.55703335     10.42146489     23.14719184 H
atom      10.67796665      5.30453511      0.10880816 H
atom       7.75007866     15.59581641      0.57612905 H
atom       4.48492134      0.13018359     22.67987095 H
atom      10.60242134      0.13018359     12.20412905 H
atom       1.63257866     15.59581641     11.05187095 H
atom       4.48492134      7.73281641     11.05187095 H
atom       7.75007866      7.99318359     12.20412905 H
atom       1.63257866      7.99318359     22.67987095 H
atom      10.60242134      7.73281641      0.57612905 H
atom       6.38923344      0.81986354      2.38439582 H
atom       5.84576656     14.90613646     20.87160418 H
atom      11.96326655     14.90613646     14.01239584 H
atom       0.27173345      0.81986354      9.24360416 H
atom       5.84576655      8.68286354      9.24360416 H
atom       6.38923345      7.04313646     14.01239584 H
atom       0.27173344      7.04313646     20.87160418 H
atom      11.96326656      8.68286354      2.38439582 H
atom       4.80027990     15.25154658      4.12584696 C
  constrain_relaxation .true.
atom       7.43472010      0.47445342     19.13015304 C
  constrain_relaxation .true.
atom       1.31722010      0.47445342     15.75384696 C
  constrain_relaxation .true.
atom      10.91777990     15.25154658      7.50215304 C
  constrain_relaxation .true.
atom       7.43472010      7.38854658      7.50215304 C
  constrain_relaxation .true.
atom       4.80027990      8.33745342     15.75384696 C
  constrain_relaxation .true.
atom      10.91777990      8.33745342     19.13015304 C
  constrain_relaxation .true.
atom       1.31722010      7.38854658      4.12584696 C
  constrain_relaxation .true.
atom       3.61311785      0.30068112      3.79375128 C
  constrain_relaxation .true.
atom       8.62188215     15.42531888     19.46224872 C
  constrain_relaxation .true.
atom       2.50438215     15.42531888     15.42175128 C
  constrain_relaxation .true.
atom       9.73061785      0.30068112      7.83424872 C
  constrain_relaxation .true.
atom       8.62188215      8.16368112      7.83424872 C
  constrain_relaxation .true.
atom       3.61311785      7.56231888     15.42175128 C
  constrain_relaxation .true.
atom       9.73061785      7.56231888     19.46224872 C
  constrain_relaxation .true.
atom       2.50438215      8.16368112      3.79375128 C
  constrain_relaxation .true.
atom       3.14867725      0.40525902      2.48490360 C
  constrain_relaxation .true.
atom       9.08632275     15.32074098     20.77109640 C
  constrain_relaxation .true.
atom       2.96882275     15.32074098     14.11290360 C
  constrain_relaxation .true.
atom       9.26617725      0.40525902      9.14309640 C
  constrain_relaxation .true.
atom       9.08632275      8.26825902      9.14309640 C
  constrain_relaxation .true.
atom       3.14867725      7.45774098     14.11290360 C
  constrain_relaxation .true.
atom       9.26617725      7.45774098     20.77109640 C
  constrain_relaxation .true.
atom       2.96882275      8.26825902      2.48490360 C
  constrain_relaxation .true.
atom       2.00898700      1.14123582      2.18583144 C
  constrain_relaxation .true.
atom      10.22601300     14.58476418     21.07016856 C
  constrain_relaxation .true.
atom       4.10851300     14.58476418     13.81383144 C
  constrain_relaxation .true.
atom       8.12648700      1.14123582      9.44216856 C
  constrain_relaxation .true.
atom      10.22601300      9.00423582      9.44216856 C
  constrain_relaxation .true.
atom       2.00898700      6.72176418     13.81383144 C
  constrain_relaxation .true.
atom       8.12648700      6.72176418     21.07016856 C
  constrain_relaxation .true.
atom       4.10851300      9.00423582      2.18583144 C
  constrain_relaxation .true.
atom       1.30486275      1.77373554      3.17607192 C
  constrain_relaxation .true.
atom      10.93013725     13.95226446     20.07992808 C
  constrain_relaxation .true.
atom       4.81263725     13.95226446     14.80407192 C
  constrain_relaxation .true.
atom       7.42236275      1.77373554      8.45192808 C
  constrain_relaxation .true.
atom      10.93013725      9.63673554      8.45192808 C
  constrain_relaxation .true.
atom       1.30486275      6.08926446     14.80407192 C
  constrain_relaxation .true.
atom       7.42236275      6.08926446     20.07992808 C
  constrain_relaxation .true.
atom       4.81263725      9.63673554      3.17607192 C
  constrain_relaxation .true.
atom       1.72978430      1.71177510      4.50096624 C
  constrain_relaxation .true.
atom      10.50521570     14.01422490     18.75503376 C
  constrain_relaxation .true.
atom       4.38771570     14.01422490     16.12896624 C
  constrain_relaxation .true.
atom       7.84728430      1.71177510      7.12703376 C
  constrain_relaxation .true.
atom      10.50521570      9.57477510      7.12703376 C
  constrain_relaxation .true.
atom       1.72978430      6.15122490     16.12896624 C
  constrain_relaxation .true.
atom       7.84728430      6.15122490     18.75503376 C
  constrain_relaxation .true.
atom       4.38771570      9.57477510      4.50096624 C
  constrain_relaxation .true.
atom       1.03581510      2.36833560      5.55399792 C
  constrain_relaxation .true.
atom      11.19918490     13.35766440     17.70200208 C
  constrain_relaxation .true.
atom       5.08168490     13.35766440     17.18199792 C
  constrain_relaxation .true.
atom       7.15331510      2.36833560      6.07400208 C
  constrain_relaxation .true.
atom      11.19918490     10.23133560      6.07400208 C
  constrain_relaxation .true.
atom       1.03581510      5.49466440     17.18199792 C
  constrain_relaxation .true.
atom       7.15331510      5.49466440     17.70200208 C
  constrain_relaxation .true.
atom       5.08168490     10.23133560      5.55399792 C
  constrain_relaxation .true.
atom       1.48875480      2.32037130      6.82354296 C
  constrain_relaxation .true.
atom      10.74624520     13.40562870     16.43245704 C
  constrain_relaxation .true.
atom       4.62874520     13.40562870     18.45154296 C
  constrain_relaxation .true.
atom       7.60625480      2.32037130      4.80445704 C
  constrain_relaxation .true.
atom      10.74624520     10.18337130      4.80445704 C
  constrain_relaxation .true.
atom       1.48875480      5.54262870     18.45154296 C
  constrain_relaxation .true.
atom       7.60625480      5.54262870     16.43245704 C
  constrain_relaxation .true.
atom       4.62874520     10.18337130      6.82354296 C
  constrain_relaxation .true.
atom       2.65952195      1.57700328      7.17819696 C
  constrain_relaxation .true.
atom       9.57547805     14.14899672     16.07780304 C
  constrain_relaxation .true.
atom       3.45797805     14.14899672     18.80619696 C
  constrain_relaxation .true.
atom       8.77702195      1.57700328      4.44980304 C
  constrain_relaxation .true.
atom       9.57547805      9.44000328      4.44980304 C
  constrain_relaxation .true.
atom       2.65952195      6.28599672     18.80619696 C
  constrain_relaxation .true.
atom       8.77702195      6.28599672     16.07780304 C
  constrain_relaxation .true.
atom       3.45797805      9.44000328      7.17819696 C
  constrain_relaxation .true.
atom       3.15210305      1.51740174      8.52495192 C
  constrain_relaxation .true.
atom       9.08289695     14.20859826     14.73104808 C
  constrain_relaxation .true.
atom       2.96539695     14.20859826     20.15295192 C
  constrain_relaxation .true.
atom       9.26960305      1.51740174      3.10304808 C
  constrain_relaxation .true.
atom       9.08289695      9.38040174      3.10304808 C
  constrain_relaxation .true.
atom       3.15210305      6.34559826     20.15295192 C
  constrain_relaxation .true.
atom       9.26960305      6.34559826     14.73104808 C
  constrain_relaxation .true.
atom       2.96539695      9.38040174      8.52495192 C
  constrain_relaxation .true.
atom       2.68656130      2.40057390      9.52961112 C
  constrain_relaxation .true.
atom       9.54843870     13.32542610     13.72638888 C
  constrain_relaxation .true.
atom       3.43093870     13.32542610     21.15761112 C
  constrain_relaxation .true.
atom       8.80406130      2.40057390      2.09838888 C
  constrain_relaxation .true.
atom       9.54843870     10.26357390      2.09838888 C
  constrain_relaxation .true.
atom       2.68656130      5.46242610     21.15761112 C
  constrain_relaxation .true.
atom       8.80406130      5.46242610     13.72638888 C
  constrain_relaxation .true.
atom       3.43093870     10.26357390      9.52961112 C
  constrain_relaxation .true.
atom       3.16886500      2.35402494     10.80241200 C
  constrain_relaxation .true.
atom       9.06613500     13.37197506     12.45358800 C
  constrain_relaxation .true.
atom       2.94863500     13.37197506     22.43041200 C
  constrain_relaxation .true.
atom       9.28636500      2.35402494      0.82558800 C
  constrain_relaxation .true.
atom       9.06613500     10.21702494      0.82558800 C
  constrain_relaxation .true.
atom       3.16886500      5.50897506     22.43041200 C
  constrain_relaxation .true.
atom       9.28636500      5.50897506     12.45358800 C
  constrain_relaxation .true.
atom       2.94863500     10.21702494     10.80241200 C
  constrain_relaxation .true.
atom       4.16932095      1.44364680     11.12822856 C
  constrain_relaxation .true.
atom       8.06567905     14.28235320     12.12777144 C
  constrain_relaxation .true.
atom       1.94817905     14.28235320     22.75622856 C
  constrain_relaxation .true.
atom      10.28682095      1.44364680      0.49977144 C
  constrain_relaxation .true.
atom       8.06567905      9.30664680      0.49977144 C
  constrain_relaxation .true.
atom       4.16932095      6.41935320     22.75622856 C
  constrain_relaxation .true.
atom      10.28682095      6.41935320     12.12777144 C
  constrain_relaxation .true.
atom       1.94817905      9.30664680     11.12822856 C
  constrain_relaxation .true.
atom       4.64000140      0.57997488     10.19380248 C
  constrain_relaxation .true.
atom       7.59499860     15.14602512     13.06219752 C
  constrain_relaxation .true.
atom       1.47749860     15.14602512     21.82180248 C
  constrain_relaxation .true.
atom      10.75750140      0.57997488      1.43419752 C
  constrain_relaxation .true.
atom       7.59499860      8.44297488      1.43419752 C
  constrain_relaxation .true.
atom       4.64000140      7.28302512     21.82180248 C
  constrain_relaxation .true.
atom      10.75750140      7.28302512     13.06219752 C
  constrain_relaxation .true.
atom       1.47749860      8.44297488     10.19380248 C
  constrain_relaxation .true.
atom       4.13151480      0.55732944      8.86704768 C
  constrain_relaxation .true.
atom       8.10348520     15.16867056     14.38895232 C
  constrain_relaxation .true.
atom       1.98598520     15.16867056     20.49504768 C
  constrain_relaxation .true.
atom      10.24901480      0.55732944      2.76095232 C
  constrain_relaxation .true.
atom       8.10348520      8.42032944      2.76095232 C
  constrain_relaxation .true.
atom       4.13151480      7.30567056     20.49504768 C
  constrain_relaxation .true.
atom      10.24901480      7.30567056     14.38895232 C
  constrain_relaxation .true.
atom       1.98598520      8.42032944      8.86704768 C
  constrain_relaxation .true.
atom       4.66410435     15.41273808      7.84262088 C
  constrain_relaxation .true.
atom       7.57089565      0.31326192     15.41337912 C
  constrain_relaxation .true.
atom       1.45339565      0.31326192     19.47062088 C
  constrain_relaxation .true.
atom      10.78160435     15.41273808      3.78537912 C
  constrain_relaxation .true.
atom       7.57089565      7.54973808      3.78537912 C
  constrain_relaxation .true.
atom       4.66410435      8.17626192     19.47062088 C
  constrain_relaxation .true.
atom      10.78160435      8.17626192     15.41337912 C
  constrain_relaxation .true.
atom       1.45339565      7.54973808      7.84262088 C
  constrain_relaxation .true.
atom       5.46916735     14.23187274      8.15587920 C
  constrain_relaxation .true.
atom       6.76583265      1.49412726     15.10012080 C
  constrain_relaxation .true.
atom       0.64833265      1.49412726     19.78387920 C
  constrain_relaxation .true.
atom      11.58666735     14.23187274      3.47212080 C
  constrain_relaxation .true.
atom       6.76583265      6.36887274      3.47212080 C
  constrain_relaxation .true.
atom       5.46916735      9.35712726     19.78387920 C
  constrain_relaxation .true.
atom      11.58666735      9.35712726     15.10012080 C
  constrain_relaxation .true.
atom       0.64833265      6.36887274      8.15587920 C
  constrain_relaxation .true.
atom       5.35648300     13.51791234      9.34426080 C
  constrain_relaxation .true.
atom       6.87851700      2.20808766     13.91173920 C
  constrain_relaxation .true.
atom       0.76101700      2.20808766     20.97226080 C
  constrain_relaxation .true.
atom      11.47398300     13.51791234      2.28373920 C
  constrain_relaxation .true.
atom       6.87851700      5.65491234      2.28373920 C
  constrain_relaxation .true.
atom       5.35648300     10.07108766     20.97226080 C
  constrain_relaxation .true.
atom      11.47398300     10.07108766     13.91173920 C
  constrain_relaxation .true.
atom       0.76101700      5.65491234      9.34426080 C
  constrain_relaxation .true.
atom       6.23985000     12.46867362      9.64984464 C
  constrain_relaxation .true.
atom       5.99515000      3.25732638     13.60615536 C
  constrain_relaxation .true.
atom      12.11265000      3.25732638     21.27784464 C
  constrain_relaxation .true.
atom       0.12235000     12.46867362      1.97815536 C
  constrain_relaxation .true.
atom       5.99515000      4.60567362      1.97815536 C
  constrain_relaxation .true.
atom       6.23985000     11.12032638     21.27784464 C
  constrain_relaxation .true.
atom       0.12235000     11.12032638     13.60615536 C
  constrain_relaxation .true.
atom      12.11265000      4.60567362      9.64984464 C
  constrain_relaxation .true.
atom       7.24397645     12.14314542      8.79169824 C
  constrain_relaxation .true.
atom       4.99102355      3.58285458     14.46430176 C
  constrain_relaxation .true.
atom      11.10852355      3.58285458     20.41969824 C
  constrain_relaxation .true.
atom       1.12647645     12.14314542      2.83630176 C
  constrain_relaxation .true.
atom       4.99102355      4.28014542      2.83630176 C
  constrain_relaxation .true.
atom       7.24397645     11.44585458     20.41969824 C
  constrain_relaxation .true.
atom       1.12647645     11.44585458     14.46430176 C
  constrain_relaxation .true.
atom      11.10852355      4.28014542      8.79169824 C
  constrain_relaxation .true.
atom       7.35286795     12.77941938      7.54424640 C
  constrain_relaxation .true.
atom       4.88213205      2.94658062     15.71175360 C
  constrain_relaxation .true.
atom      10.99963205      2.94658062     19.17224640 C
  constrain_relaxation .true.
atom       1.23536795     12.77941938      4.08375360 C
  constrain_relaxation .true.
atom       4.88213205      4.91641938      4.08375360 C
  constrain_relaxation .true.
atom       7.35286795     10.80958062     19.17224640 C
  constrain_relaxation .true.
atom       1.23536795     10.80958062     15.71175360 C
  constrain_relaxation .true.
atom      10.99963205      4.91641938      7.54424640 C
  constrain_relaxation .true.
atom       8.36433540     12.44807256      6.62144832 C
  constrain_relaxation .true.
atom       3.87066460      3.27792744     16.63455168 C
  constrain_relaxation .true.
atom       9.98816460      3.27792744     18.24944832 C
  constrain_relaxation .true.
atom       2.24683540     12.44807256      5.00655168 C
  constrain_relaxation .true.
atom       3.87066460      4.58507256      5.00655168 C
  constrain_relaxation .true.
atom       8.36433540     11.14092744     18.24944832 C
  constrain_relaxation .true.
atom       2.24683540     11.14092744     16.63455168 C
  constrain_relaxation .true.
atom       9.98816460      4.58507256      6.62144832 C
  constrain_relaxation .true.
atom       8.44288410     13.07113668      5.42515968 C
  constrain_relaxation .true.
atom       3.79211590      2.65486332     17.83084032 C
  constrain_relaxation .true.
atom       9.90961590      2.65486332     17.05315968 C
  constrain_relaxation .true.
atom       2.32538410     13.07113668      6.20284032 C
  constrain_relaxation .true.
atom       3.79211590      5.20813668      6.20284032 C
  constrain_relaxation .true.
atom       8.44288410     10.51786332     17.05315968 C
  constrain_relaxation .true.
atom       2.32538410     10.51786332     17.83084032 C
  constrain_relaxation .true.
atom       9.90961590      5.20813668      5.42515968 C
  constrain_relaxation .true.
atom       7.45674310     13.98560358      5.03050536 C
  constrain_relaxation .true.
atom       4.77825690      1.74039642     18.22549464 C
  constrain_relaxation .true.
atom      10.89575690      1.74039642     16.65850536 C
  constrain_relaxation .true.
atom       1.33924310     13.98560358      6.59749464 C
  constrain_relaxation .true.
atom       4.77825690      6.12260358      6.59749464 C
  constrain_relaxation .true.
atom       7.45674310      9.60339642     16.65850536 C
  constrain_relaxation .true.
atom       1.33924310      9.60339642     18.22549464 C
  constrain_relaxation .true.
atom      10.89575690      6.12260358      5.03050536 C
  constrain_relaxation .true.
atom       6.38324420     14.29650660      5.85400032 C
  constrain_relaxation .true.
atom       5.85175580      1.42949340     17.40199968 C
  constrain_relaxation .true.
atom      11.96925580      1.42949340     17.48200032 C
  constrain_relaxation .true.
atom       0.26574420     14.29650660      5.77399968 C
  constrain_relaxation .true.
atom       5.85175580      6.43350660      5.77399968 C
  constrain_relaxation .true.
atom       6.38324420      9.29249340     17.48200032 C
  constrain_relaxation .true.
atom       0.26574420      9.29249340     17.40199968 C
  constrain_relaxation .true.
atom      11.96925580      6.43350660      5.85400032 C
  constrain_relaxation .true.
atom       5.19547040     15.09287124      5.43469464 C
  constrain_relaxation .true.
atom       7.03952960      0.63312876     17.82130536 C
  constrain_relaxation .true.
atom       0.92202960      0.63312876     17.06269464 C
  constrain_relaxation .true.
atom      11.31297040     15.09287124      6.19330536 C
  constrain_relaxation .true.
atom       7.03952960      7.22987124      6.19330536 C
  constrain_relaxation .true.
atom       5.19547040      8.49612876     17.06269464 C
  constrain_relaxation .true.
atom      11.31297040      8.49612876     17.82130536 C
  constrain_relaxation .true.
atom       0.92202960      7.22987124      5.43469464 C
  constrain_relaxation .true.
atom       2.90312080      0.96589092      4.82236416 C
  constrain_relaxation .true.
atom       9.33187920     14.76010908     18.43363584 C
  constrain_relaxation .true.
atom       3.21437920     14.76010908     16.45036416 C
  constrain_relaxation .true.
atom       9.02062080      0.96589092      6.80563584 C
  constrain_relaxation .true.
atom       9.33187920      8.82889092      6.80563584 C
  constrain_relaxation .true.
atom       2.90312080      6.89710908     16.45036416 C
  constrain_relaxation .true.
atom       9.02062080      6.89710908     18.43363584 C
  constrain_relaxation .true.
atom       3.21437920      8.82889092      4.82236416 C
  constrain_relaxation .true.
atom       3.34088910      0.87216396      6.17051448 C
  constrain_relaxation .true.
atom       8.89411090     14.85383604     17.08548552 C
  constrain_relaxation .true.
atom       2.77661090     14.85383604     17.79851448 C
  constrain_relaxation .true.
atom       9.45838910      0.87216396      5.45748552 C
  constrain_relaxation .true.
atom       8.89411090      8.73516396      5.45748552 C
  constrain_relaxation .true.
atom       3.34088910      6.99083604     17.79851448 C
  constrain_relaxation .true.
atom       9.45838910      6.99083604     17.08548552 C
  constrain_relaxation .true.
atom       2.77661090      8.73516396      6.17051448 C
  constrain_relaxation .true.
atom       4.41365390     15.70366908      6.50284272 C
  constrain_relaxation .true.
atom       7.82134610      0.02233092     16.75315728 C
  constrain_relaxation .true.
atom       1.70384610      0.02233092     18.13084272 C
  constrain_relaxation .true.
atom      10.53115390     15.70366908      5.12515728 C
  constrain_relaxation .true.
atom       7.82134610      7.84066908      5.12515728 C
  constrain_relaxation .true.
atom       4.41365390      7.88533092     18.13084272 C
  constrain_relaxation .true.
atom      10.53115390      7.88533092     16.75315728 C
  constrain_relaxation .true.
atom       1.70384610      7.84066908      6.50284272 C
  constrain_relaxation .true.
atom       6.39535685     13.77440340      7.17959232 C
  constrain_relaxation .true.
atom       5.83964315      1.95159660     16.07640768 C
  constrain_relaxation .true.
atom      11.95714315      1.95159660     18.80759232 C
  constrain_relaxation .true.
atom       0.27785685     13.77440340      4.44840768 C
  constrain_relaxation .true.
atom       5.83964315      5.91140340      4.44840768 C
  constrain_relaxation .true.
atom       6.39535685      9.81459660     18.80759232 C
  constrain_relaxation .true.
atom       0.27785685      9.81459660     16.07640768 C
  constrain_relaxation .true.