#=======================================================
# FHI-aims file: pahs_geometry_fix/BZPHAN.in
# Created using the Atomic Simulation Environment (ASE)
# Tue May 25 14:20:52 2021
#=======================================================
lattice_vector 0.0000000000000000 0.0000000000000000 -5.7850000000000001 
lattice_vector -0.0000000000000023 -14.1570000000000000 -0.0000000000000009 
lattice_vector -14.6600000000000001 0.0000000000000000 -0.0000000000000009 
atom -8.8986200000000011 -11.8210949999999997 -4.2398265000000022 H
atom -13.0913800000000009 -2.3359050000000003 -1.3473265000000012 H
atom -5.7613800000000008 -4.7425949999999997 -4.4376734999999998 H
atom -1.5686199999999997 -9.4144050000000004 -1.5451735000000006 H
atom -11.4655860000000018 -7.8288209999999987 -0.9470045000000009 H
atom -10.5244140000000002 -6.3281789999999996 -3.8395045000000008 H
atom -3.1944140000000001 -0.7503210000000022 -1.9454955000000005 H
atom -4.1355860000000026 -13.4066789999999987 -4.8379955000000017 H
atom -13.6645860000000017 -8.5593222000000004 -2.2688770000000011 H
atom -8.3254140000000021 -5.5976777999999996 -5.1613770000000008 H
atom -0.9954139999999997 -1.4808222000000004 -0.6236230000000003 H
atom -6.3345860000000007 -12.6761777999999996 -3.5161230000000017 H
atom -14.3228200000000019 -9.9226413000000004 -3.8030590000000015 H
atom -7.6671799999999992 -4.2343587000000005 -0.9105590000000012 H
atom -0.3371800000000008 -2.8441413000000013 -4.8744410000000000 H
atom -6.9928200000000018 -11.3128586999999996 -1.9819410000000013 H
atom -7.7082280000000027 -13.3868592000000000 -5.3864135000000024 H
atom -14.2817720000000001 -0.7701408000000001 -2.4939135000000010 H
atom -6.9517720000000001 -6.3083591999999999 -3.2910865000000009 H
atom -0.3782280000000003 -7.8486408000000001 -0.3985865000000003 H
atom -8.4984020000000005 -14.1499215000000014 -1.5845115000000016 H
atom -13.4915979999999998 -0.0070784999999992 -4.4770115000000015 H
atom -6.1615980000000015 -7.0714215000000005 -1.3079885000000007 H
atom -1.1684020000000011 -7.0855785000000004 -4.2004884999999996 H
atom -10.8674580000000027 -13.4873738999999997 -2.1948290000000013 H
atom -11.1225419999999993 -0.6696261000000001 -5.0873290000000004 H
atom -3.7925420000000019 -6.4088738999999997 -0.6976710000000009 H
atom -3.5374580000000009 -7.7481261000000003 -3.5901710000000007 H
atom -13.3127460000000024 -12.4977996000000005 -1.5712060000000012 H
atom -8.6772539999999978 -1.6592003999999996 -4.4637060000000011 H
atom -1.3472540000000006 -5.4192996000000004 -1.3212940000000006 H
atom -5.9827460000000032 -8.7377003999999996 -4.2137940000000009 H
atom -14.1630260000000021 -11.2151753999999997 -5.7583890000000020 H
atom -7.8269740000000008 -2.9418246000000012 -2.8658890000000001 H
atom -0.4969739999999996 -4.1366754000000006 -2.9191110000000009 H
atom -6.8330259999999994 -10.0203246000000004 -0.0266110000000020 H
atom -8.4720140000000033 -9.8306208000000002 -4.0529710000000021 H
atom -13.5179860000000005 -4.3263791999999999 -1.1604710000000011 H
atom -6.1879860000000013 -2.7521208000000001 -4.6245289999999999 H
atom -1.1420140000000014 -11.4048792000000017 -1.7320290000000007 H
atom -7.8225760000000024 -8.4531446999999993 -2.4152375000000008 H
atom -14.1674240000000022 -5.7038553000000007 -5.3077375000000009 H
atom -6.8374240000000004 -1.3746446999999995 -0.4772625000000013 H
atom -0.4925760000000015 -12.7823553000000008 -3.3697625000000011 H
atom -9.1610340000000008 -7.6504427999999995 -0.6166810000000018 H
atom -12.8289660000000012 -6.5065572000000005 -3.5091810000000017 H
atom -5.4989659999999985 -0.5719428000000014 -2.2758190000000003 H
atom -1.8310340000000023 -13.5850571999999996 -5.1683190000000012 H
atom -9.2445960000000014 -12.1396275000000013 -4.9114650000000015 C
atom -12.7454039999999988 -2.0173724999999996 -2.0189650000000010 C
atom -5.4154039999999988 -5.0611275000000022 -3.7660350000000009 C
atom -1.9145960000000037 -9.0958725000000005 -0.8735350000000015 C
atom -12.6677060000000008 -10.6078401000000007 -4.5585800000000019 C
atom -9.3222940000000012 -3.5491599000000020 -1.6660800000000011 C
atom -1.9922940000000009 -3.5293400999999993 -4.1189200000000001 C
atom -5.3377059999999998 -10.6276599000000012 -1.2264200000000007 C
atom -9.2548580000000005 -9.5361551999999996 -3.3622420000000006 C
atom -12.7351420000000015 -4.6208448000000004 -0.4697420000000014 C
atom -5.4051419999999997 -2.4576551999999996 -5.3152580000000009 C
atom -1.9248580000000015 -11.6993448000000004 -2.4227580000000009 C
atom -8.7256320000000009 -8.7362847000000006 -2.3730070000000012 C
atom -13.2643680000000010 -5.4207153000000003 -5.2655070000000013 C
atom -5.9343680000000010 -1.6577847000000012 -0.5194930000000004 C
atom -1.3956320000000013 -12.4992152999999995 -3.4119930000000007 C
atom -9.5524560000000012 -8.1799146000000018 -1.3843505000000009 C
atom -12.4375440000000026 -5.9770854000000000 -4.2768505000000010 C
atom -5.1075440000000008 -1.1014145999999998 -1.5081495000000005 C
atom -2.2224560000000015 -13.0555854000000000 -4.4006495000000010 C
atom -10.8997100000000025 -8.3696183999999985 -1.4572415000000012 C
atom -11.0902899999999995 -5.7873816000000025 -4.3497415000000013 C
atom -3.7602899999999995 -1.2911183999999993 -1.4352585000000009 C
atom -3.5697100000000028 -12.8658816000000016 -4.3277585000000007 C
atom -12.9125280000000018 -9.2077127999999995 -2.6188695000000015 C
atom -9.0774720000000002 -4.9492872000000006 -5.5113695000000007 C
atom -1.7474719999999999 -2.1292127999999999 -0.2736305000000003 C
atom -5.5825280000000026 -12.0277872000000006 -3.1661305000000013 C
atom -13.4652100000000008 -9.8490248999999999 -3.6462855000000021 C
atom -8.5247900000000012 -4.3079751000000002 -0.7537855000000000 C
atom -1.1947900000000007 -2.7705248999999998 -5.0312144999999999 C
atom -6.1352099999999998 -11.3864751000000002 -2.1387145000000016 C
atom -10.6578200000000010 -9.8362835999999998 -3.4085220000000005 C
atom -11.3321800000000010 -4.3207164000000002 -0.5160220000000005 C
atom -4.0021800000000010 -2.7577835999999998 -5.2689779999999997 C
atom -3.3278200000000000 -11.3992164000000002 -2.3764780000000014 C
atom -11.4802460000000011 -9.1383434999999995 -2.4597820000000015 C
atom -10.5097540000000009 -5.0186565000000005 -5.3522820000000015 C
atom -3.1797539999999986 -2.0598434999999995 -0.4327180000000002 C
atom -4.1502460000000019 -12.0971565000000005 -3.3252180000000013 C
atom -8.5892940000000024 -13.0046201999999997 -5.7601245000000016 C
atom -13.4007060000000013 -1.1523798000000003 -2.8676245000000011 C
atom -6.0707060000000013 -5.9261201999999997 -2.9173755000000008 C
atom -1.2592939999999995 -8.2308797999999985 -0.0248755000000004 C
atom -9.1962180000000018 -13.4463185999999997 -1.1726195000000015 C
atom -12.7937820000000002 -0.7106814000000004 -4.0651195000000007 C
atom -5.4637820000000019 -6.3678185999999997 -1.7198805000000017 C
atom -1.8662180000000008 -7.7891814000000004 -4.6123805000000013 C
atom -10.4994920000000018 -13.0598325000000006 -1.4341015000000017 C
atom -11.4905080000000002 -1.0971675000000003 -4.3266015000000007 C
atom -4.1605080000000001 -5.9813325000000015 -1.4583985000000006 C
atom -3.1694920000000004 -8.1756674999999994 -4.3508985000000013 C
atom -12.5973380000000006 -11.9725748999999997 -0.7821320000000015 C
atom -9.3926619999999996 -2.1844250999999999 -3.6746320000000003 C
atom -2.0626620000000013 -4.8940748999999997 -2.1103680000000007 C
atom -5.2673379999999996 -9.2629251000000021 -5.0028680000000012 C
atom -13.3024840000000015 -11.2604778000000003 -5.6606225000000023 C
atom -8.6875160000000005 -2.8965222000000002 -2.7681225000000009 C
atom -1.3575160000000008 -4.1819778000000003 -3.0168775000000010 C
atom -5.9724840000000015 -9.9750221999999997 -0.1243775000000008 C
atom -10.5464040000000026 -11.6427168000000005 -5.2198055000000014 C
atom -11.4435959999999994 -2.5142831999999999 -2.3273055000000009 C
atom -4.1135960000000003 -4.5642168000000005 -3.4576945000000010 C
atom -3.2164040000000020 -9.5927831999999995 -0.5651945000000008 C
atom -11.1929100000000030 -12.2203223999999988 -0.5669300000000013 C
atom -10.7970899999999990 -1.9366776000000021 -3.4594300000000002 C
atom -3.4670900000000016 -5.1418223999999997 -2.3255700000000008 C
atom -3.8629100000000025 -9.0151776000000012 -5.2180700000000009 C
atom -11.2691420000000004 -10.6970292000000011 -4.3867655000000019 C
atom -10.7208580000000016 -3.4599707999999993 -1.4942655000000007 C
atom -3.3908579999999997 -3.6185292000000007 -4.2907345000000001 C
atom -3.9391420000000026 -10.5384707999999989 -1.3982345000000012 C
