#=======================================================
# FHI-aims file: pahs_geometry_fix/QUPHEN.in
# Created using the Atomic Simulation Environment (ASE)
# Tue May 25 14:20:53 2021
#=======================================================
lattice_vector -0.0000000000000009 -5.6100000000000003 -0.0000000000000003 
lattice_vector -8.0684825486014713 0.0000000000000000 0.8195665701536936 
lattice_vector 0.0000000000000000 0.0000000000000000 -17.9100000000000001 
atom -1.8581715309429194 -5.5931700000000006 -9.0671418188936048 H
atom -2.1760697433578176 -2.7881700000000000 -8.4330748960295487 H
atom -6.2103110176585528 -0.0168299999999994 -8.0232916109527022 H
atom -5.8924128052436542 -2.8218300000000003 -8.6573585338167582 H
atom -2.7989565961098504 -1.7093669999999999 -10.5207953568136823 H
atom -1.2352846781908871 -4.5143670000000000 -6.9794213581094704 H
atom -5.2695259524916214 -3.9006330000000005 -6.5696380730326256 H
atom -6.8331978704105865 -1.0956330000000003 -10.1110120717368375 H
atom -2.2131847630813848 -1.7839799999999992 -12.8208368898068414 H
atom -1.8210565112193529 -4.5889800000000003 -4.6793798251163112 H
atom -5.8552977855200883 -3.8260199999999998 -4.2695965400394638 H
atom -6.2474260373821195 -1.0210199999999998 -12.4110536047299949 H
atom -7.1906316473136318 -3.9034380000000000 -15.8811272726790289 H
atom -4.9120921755885760 -1.0984379999999994 -0.7995228720904316 H
atom -0.8778509012878413 -1.7065620000000001 -1.2093061571672783 H
atom -3.1563903730128962 -4.5115620000000005 -16.2909105577558755 H
atom -7.7263788885407694 -3.6863310000000005 -13.6345240524208240 H
atom -4.3763449343614385 -0.8813310000000002 -3.0461260923486360 H
atom -0.3421036600607026 -1.9236689999999994 -3.4559093774254830 H
atom -3.6921376142400351 -4.7286690000000000 -14.0443073374976706 H
atom -1.7540881060659606 -1.8041760000000000 -14.8357792276485885 H
atom -2.2801531682347771 -4.6091760000000006 -2.6644374872745655 H
atom -6.3143944425355114 -3.8058240000000003 -2.2546542021977189 H
atom -5.7883293803666955 -1.0008239999999995 -14.4259959425717419 H
atom -1.3458228891067252 -1.7391000000000003 -17.2485332960983655 H
atom -2.6884183851940113 -4.5441000000000003 -0.2516834188247894 H
atom -6.7226596594947461 -3.8708999999999998 0.1580998662520574 H
atom -5.3800641634074617 -1.0658999999999998 -16.8387500110215171 H
atom -0.0169438133520636 -3.6840870000000003 -12.3812529102026776 H
atom -4.0172974609486731 -0.8790869999999997 -5.1189638047204760 H
atom -8.0515387352494088 -1.9259130000000004 -4.7091805196436294 H
atom -4.0511850876527991 -4.7309130000000001 -11.9714696251258310 H
atom -0.4373117541342006 -3.8697780000000002 -10.0030894918976685 H
atom -3.5969295201665359 -1.0647779999999993 -7.4971272230254842 H
atom -7.6311707944672715 -1.7402219999999997 -7.0873439379486376 H
atom -4.4715530284349363 -4.5452220000000008 -9.5933062068208237 H
atom -0.1639515653875819 -0.0014024999999998 -17.1769464072944764 C
atom -3.8702897089131540 -2.8064024999999995 -0.3232703076286791 C
atom -7.9045309832138901 -5.6085975000000001 0.0865129774481696 C
atom -4.1981928396883186 -2.8035975000000004 -16.7671631222176281 C
atom -1.5832783305120668 -0.0402797999999992 -10.1293669519387421 C
atom -2.4509629437886691 -2.8452798000000001 -7.3708497629844123 C
atom -6.4852042180894056 -5.5697202000000008 -6.9610664779075657 C
atom -5.6175196048128040 -2.7647201999999997 -9.7195836668618956 C
atom -2.1169277662765680 -1.0225907999999995 -10.9713772189887759 C
atom -1.9173135080241683 -3.8275908000000003 -6.5288394959343803 C
atom -5.9515547823249042 -4.5874092000000006 -6.1190562108575319 C
atom -6.1511690405773036 -1.7824092000000000 -10.5615939339119276 C
atom -1.8192007602331743 -1.0080609000000003 -12.3463020254274465 C
atom -2.2150405140675629 -3.8130609000000004 -5.1539146894957089 C
atom -6.2492817883682985 -4.6019391000000001 -4.7441314044188614 C
atom -5.8534420345339102 -1.7969390999999995 -11.9365187403505999 C
atom -7.7363031220755492 -4.6002561000000002 -15.5110212855395346 C
atom -4.3664207008266587 -1.7952560999999996 -1.1696288592299253 C
atom -0.3321794265259231 -1.0097438999999999 -1.5794121443067721 C
atom -3.7020618477748135 -3.8147439000000003 -15.9208045706163812 C
atom -8.0233797311547903 -4.5934119000000004 -14.1375365069734666 C
atom -4.0793440917474184 -1.7884119000000003 -2.5431136377959942 C
atom -0.0451028174466840 -1.0165880999999994 -2.9528969228728408 C
atom -3.9891384568540542 -3.8215880999999996 -14.5473197920503132 C
atom -0.7312465733797522 -5.5958628000000008 -14.3715704817469732 C
atom -3.3029947009209848 -2.7908628000000002 -3.1286462331761853 C
atom -7.3372359752217200 -0.0141371999999992 -2.7188629480993360 C
atom -4.7654878476804869 -2.8191372000000001 -13.9617871966701248 C
atom -1.2109178608941098 -1.0124927999999993 -15.2011536491513350 C
atom -2.8233234134066274 -3.8174928000000001 -2.2990630657718190 C
atom -6.8575646877073630 -4.5975072000000008 -1.8892797806949722 C
atom -5.2451591351948448 -1.7925072000000002 -14.7913703640744885 C
atom -0.9287630261695159 -1.0125489000000003 -16.5814815921096077 C
atom -3.1054782481312206 -3.8175488999999998 -0.9187351228135456 C
atom -7.1397195224319567 -4.5974510999999998 -0.5089518377367008 C
atom -4.9630043004702520 -1.7924510999999999 -16.1716983070327629 C
atom -1.0329271358719614 -5.6084853000000008 -12.9165445876889233 C
atom -3.0013141384287754 -2.8034853000000002 -4.5836721272342293 C
atom -7.0355554127295106 -0.0015146999999993 -4.1738888421573845 C
atom -5.0671684101726964 -2.8065147000000001 -12.5067613026120767 C
atom -0.5263071166452747 -4.6074930000000007 -12.0648038726288753 C
atom -3.5079341576554617 -1.8024929999999997 -5.4354128422942791 C
atom -7.5421754319561973 -1.0025069999999994 -5.0256295572174317 C
atom -4.5605483909460105 -3.8075070000000006 -11.6550205875520287 C
atom -0.8100756478795897 -4.6297647000000000 -10.6875358163565704 C
atom -3.2241656264211480 -1.8247646999999998 -6.8126808985665841 C
atom -7.2584069007218837 -0.9802353000000004 -6.4028976134897366 C
atom -4.8443169221803242 -3.7852353000000005 -10.2777525312797220 C
