#=======================================================
# FHI-aims file: pahs_geometry_fix/TERPHE02.in
# Created using the Atomic Simulation Environment (ASE)
# Tue May 25 14:20:53 2021
#=======================================================
lattice_vector -0.0000000000000009 -5.6130000000000004 -0.0000000000000003 
lattice_vector -8.1009628011783317 0.0000000000000000 0.2857231070895366 
lattice_vector 0.0000000000000000 0.0000000000000000 -13.6129999999999995 
atom -7.4140011556384096 -3.8942994000000000 -11.9330316123916553 H
atom -0.6869616455399227 -1.7187006000000009 -1.3942452805188053 H
atom -4.7374430461290888 -1.0877994000000000 -1.2513837269740384 H
atom -3.3635197550492451 -4.5252006000000007 -12.0758931659364226 H
atom -6.6598015188487079 -3.9307838999999998 -0.5832483336616927 H
atom -1.4411612823296251 -1.6822161000000000 -12.7440285592487701 H
atom -5.4916426829187905 -1.1242839000000002 -12.6011670057040028 H
atom -2.6093201182595416 -4.4887161000000004 -0.7261098872064595 H
atom -7.8733257464652207 -3.9279774000000001 -9.9701721122196787 H
atom -0.2276370547131115 -1.6850226000000008 -3.3571047806907823 H
atom -4.2781184553022769 -1.1214774000000001 -3.2142432271460155 H
atom -3.8228443458760553 -4.4915226000000006 -10.1130336657644477 H
atom -0.3596827483723194 -3.8892477000000008 -7.9550027940452237 H
atom -7.7412800528060144 -1.7237523000000010 -5.3722740988652369 H
atom -3.6907986522168481 -1.0827476999999999 -5.5151356524100068 H
atom -4.4101641489614840 -4.5302523000000008 -7.8121412405004556 H
atom -1.6987718994070962 -0.0690399000000005 -7.0814636644433238 H
atom -6.4021909017712364 -5.5439601000000005 -6.2458132284671386 H
atom -2.3517095011820701 -2.8755399000000001 -6.3886747820119067 H
atom -5.7492532999962620 -2.7374601000000003 -6.9386021108985556 H
atom -2.6190412736209550 -1.7506946999999999 -8.5518807194779534 H
atom -5.4819215275573780 -3.8623053000000001 -4.7753961734325090 H
atom -1.4314401269682127 -4.5571947000000010 -4.9182577269772789 H
atom -6.6695226742101212 -1.0558053000000003 -8.4090191659331843 H
atom -1.8389185558674823 -1.7102811000000000 -10.9153866546906748 H
atom -6.2620442453108511 -3.9027189000000004 -2.4118902382197884 H
atom -2.2115628447216853 -4.5167811000000002 -2.5547517917645570 H
atom -5.8893999564566473 -1.0962189000000002 -10.7725251011459058 H
atom -7.6805228317971777 -4.6368993000000005 -12.4940160221684096 C
atom -0.4204399693811551 -0.9761007000000010 -0.8332608707420534 C
atom -4.4709213699703216 -1.8303992999999998 -0.6903993171972836 C
atom -3.6300414312080114 -3.7826007000000006 -12.6368775757131786 C
atom -0.3775048665349109 -5.6124387000000002 -12.2411079032096275 C
atom -7.7234579346434220 -0.0005613000000006 -1.0861689897008358 C
atom -3.6729765340542571 -2.8059387000000009 -1.2290305432456041 C
atom -4.4279862671240764 -2.8070613000000000 -12.0982463496648585 C
atom -7.3151694094640343 -4.6425122999999999 -0.2184470342981492 C
atom -0.7857933917142991 -0.9704877000000010 -13.1088298586123138 C
atom -4.8362747923034641 -1.8360122999999999 -12.9659683050675465 C
atom -3.2646880088748684 -3.7769877000000007 -0.3613085878429159 C
atom -0.7720217549522963 -0.0129098999999998 -10.7991894878943668 C
atom -7.3289410462260385 -5.6000901000000010 -2.5280874050160964 C
atom -3.2784596456368700 -2.8194099000000001 -2.6709489585608632 C
atom -4.8225031555414608 -2.7935901000000003 -10.6563279343495996 C
atom -0.3272788971676062 -4.6273572000000005 -9.9327532864735808 C
atom -7.7736839040107277 -0.9856427999999999 -3.3945236064368802 C
atom -3.7232025034215614 -1.8208572000000003 -3.5373851599816470 C
atom -4.3777602977567707 -3.7921428000000001 -9.7898917329288135 C
atom -0.6918222232206305 -4.6397058000000007 -8.5803765466545538 C
atom -7.4091405779577020 -0.9732942000000001 -4.7469003462559085 C
atom -3.3586591773685361 -1.8332058000000002 -4.8897618998006784 C
atom -4.7423036238097955 -3.7797942000000004 -8.4375149931097830 C
atom -1.4921973479770489 -0.0336780000000007 -8.0933890036741065 C
atom -6.6087654532012836 -5.5793220000000003 -5.2338878892363541 C
atom -2.5582840526121164 -2.8401780000000003 -5.3767494427811240 C
atom -5.5426787485662139 -2.7728220000000001 -7.9505274501293384 C
atom -1.9596229016050386 -1.0069722000000001 -8.9440508803950411 C
atom -6.1413398995732935 -4.6060278000000006 -4.3832260125154221 C
atom -2.0908584989841290 -3.8134722000000005 -4.5260875660601902 C
atom -6.0101043021942049 -1.7995278000000001 -8.8011893268502721 C
atom -1.6031805383531916 -0.9957462000000007 -10.2852514971069802 C
atom -6.4977822628251412 -4.6172538000000003 -3.0420253958034822 C
atom -2.4473008622359749 -3.8022462000000004 -3.1848869493482503 C
atom -5.6536619389423572 -1.8107538000000001 -10.1423899435622129 C
