#=======================================================
# FHI-aims file: pahs_geometry_fix/TBZHCE.in
# Created using the Atomic Simulation Environment (ASE)
# Tue May 25 14:20:53 2021
#=======================================================
lattice_vector -0.0000000000000006 -3.8599999999999999 -0.0000000000000002 
lattice_vector -24.4848189851813736 0.0000000000000000 2.5086666304835616 
lattice_vector 0.0000000000000000 0.0000000000000000 -25.8949999999999996 
atom -14.2942373235488862 -0.5635599999999996 -6.7959454211236983 H
atom -10.1905816616324856 -3.2964400000000000 -16.5903879483927419 H
atom -22.4329911542231741 -2.4935599999999996 -2.3885546331509651 H
atom -2.0518278309581990 -1.3664399999999994 -20.9977787363654791 H
atom -14.8990123524828650 -0.5828599999999996 -4.5639803553507550 H
atom -9.5858066326985067 -3.2771399999999997 -18.8223530141656852 H
atom -21.8282161252891953 -2.5128599999999999 -4.6205196989239088 H
atom -2.6566028598921774 -1.3471399999999998 -18.7658136705925358 H
atom -13.4152323219808771 -3.7519199999999997 -2.8904080531580583 H
atom -11.0695866632004982 -0.1080799999999997 -20.4959253163583810 H
atom -23.3119961557911886 -1.8219199999999998 -6.2940920011166019 H
atom -1.1728228293901868 -2.0380799999999999 -17.0922413683998400 H
atom -9.1671162280519027 -1.9994799999999999 -2.8673202135469582 H
atom -15.3177027571294655 -1.8605200000000000 -20.5190131559694819 H
atom -3.0752932645387818 -0.0694799999999996 -8.8258464712112641 H
atom -21.4095257206425948 -3.7905199999999999 -14.5604868983051734 H
atom -11.2336349504012141 -2.7676200000000000 -2.3085957499341463 H
atom -13.2511840347801577 -1.0923799999999997 -21.0777376195822974 H
atom -1.0087745421894732 -0.8376199999999995 -9.3845709348240778 H
atom -23.4760444429919026 -3.0223800000000001 -14.0017624346923597 H
atom -7.4825606818714245 -1.4436399999999996 -4.6246904777242248 H
atom -17.0022583033099473 -2.4163599999999996 -18.7616428917922171 H
atom -4.7598488107192569 -3.3736400000000000 -7.0684762070339948 H
atom -19.7249701744621149 -0.4863599999999996 -16.3178571624824400 H
atom -6.8484038701552263 -1.3471399999999998 -6.8648449434537513 H
atom -17.6364151150261428 -2.5128599999999999 -16.5214884260626889 H
atom -5.3940056224354560 -3.2771399999999997 -4.8283217413044710 H
atom -19.0908133627459158 -0.5828599999999996 -18.5580116282119683 H
atom -8.3125960454690766 -2.0728199999999997 -8.5145291789508306 H
atom -16.1722229397122952 -1.7871799999999993 -14.8718041905656104 H
atom -3.9298134471216097 -0.1428199999999997 -3.1786375058073877 H
atom -20.5550055380597598 -3.7171799999999999 -20.2076958637090520 H
atom -13.6845653308178683 -0.6639199999999997 -8.7124932202227363 H
atom -10.8002536543635053 -3.1960799999999998 -14.6738401492936994 H
atom -23.0426631469541938 -2.5939199999999998 -0.4720068340519217 H
atom -1.4421558382271820 -1.2660799999999994 -22.9143265354645180 H
atom -9.7082307276244144 -2.5128599999999999 -9.9355931810132692 H
atom -14.7765882575569574 -1.3471399999999998 -13.4507401885031719 H
atom -2.5341787649662733 -0.5828599999999996 -1.7575735037449505 H
atom -21.9506402202150994 -3.2771399999999997 -21.6287598657714888 H
atom -14.2305767941874137 -1.1309799999999997 -11.0337109543629559 H
atom -10.2542421909939581 -2.7290200000000002 -12.3526224151534869 H
atom -22.4966516835846448 -3.0609799999999998 1.8492109000882946 H
atom -1.9881673015967261 -0.7990199999999994 -25.2355442696047376 H
atom -20.7778173908249144 -0.5249599999999995 -6.5848129973716496 H
atom -3.7070015943564574 -3.3350399999999998 -16.8015203721447897 H
atom -15.9494110869471459 -2.4549599999999998 -2.5996870569030075 H
atom -8.5354078982342276 -1.4050399999999998 -20.7866463126134313 H
atom -18.8802439194733580 -0.6832199999999997 -5.2747351612341280 H
atom -5.6045750657080138 -3.1767799999999999 -18.1115982082823130 H
atom -17.8469845582987041 -2.6132199999999997 -3.9097648930405353 H
atom -6.6378344268826677 -1.2467799999999993 -19.4765684764759044 H
atom -16.9753250024262456 -1.6443600000000000 -6.0680839250857490 H
atom -7.5094939827551270 -2.2156400000000001 -17.3182494444306911 H
atom -19.7519034753458129 -3.5743600000000000 -3.1164161291889143 H
atom -4.7329155098355606 -0.2856399999999994 -20.2699172403275263 H
atom -15.4817510443301796 -3.0687000000000002 -10.2762695895452438 H
atom -9.0030679408511922 -0.7912999999999993 -13.1100637799711954 H
atom -21.2454774334418772 -1.1386999999999996 1.0917695352705823 H
atom -3.2393415517394955 -2.7213000000000003 -24.4781029047870220 H
atom -15.6384538858353412 -2.5746199999999999 -8.0436021231101513 H
atom -8.8463650993460270 -1.2853799999999997 -15.3427312464062879 H
atom -21.0887745919367156 -0.6446199999999997 -1.1408979311645098 H
atom -3.3960443932446580 -3.2153799999999997 -22.2454354383519295 H
atom -16.5566345977796416 -3.2809999999999997 -12.4733836244670169 H
atom -7.9281843874017284 -0.5790000000000001 -10.9129497450494224 H
atom -20.1705938799924169 -1.3510000000000000 -22.6061164298076420 H
atom -4.3142251051889593 -2.5089999999999995 -0.7802169397087970 H
atom -18.2852628181334502 -2.9606199999999996 -13.8965827603548764 H
atom -6.1995561670479233 -0.8993799999999995 -9.4897506091615629 H
atom -18.4419656596386119 -1.0306199999999996 -21.1829172939197825 H
atom -6.0428533255427643 -2.8293799999999996 -2.2034160755966568 H
atom -20.3517815404827580 -2.0342199999999995 -13.0711397967420648 H
atom -4.1330374446986147 -1.8257800000000000 -10.3151935727743744 H
atom -16.3754469372893006 -0.1042199999999997 -22.0083602575325941 H
atom -8.1093720478920730 -3.7557799999999997 -1.3779731119838454 H
atom -22.2224217109506128 -3.7943799999999999 -7.9205851661731232 H
atom -2.2623972742307599 -0.0656199999999996 -15.4657482033433205 H
atom -14.5048067668214475 -1.8643799999999999 -1.2639148881015398 H
atom -9.9800122183599278 -1.9956199999999995 -22.1224184814149005 H
atom -22.0240946771706447 -1.4088999999999998 -12.3171603658800386 H
atom -2.4607243080107266 -2.4510999999999998 -11.0691730036364024 H
atom -14.7031338006014138 -3.3388999999999998 -22.7623396883946221 H
atom -9.7816851845799579 -0.5211000000000000 -0.6239936811218192 H
atom -0.1248725768244253 -3.1072999999999995 -10.7439888001845372 H
atom -24.3599464083569472 -0.7526999999999998 -12.6423445693319039 H
atom -12.1175369157662622 -1.1773000000000002 -0.9491778845736855 H
atom -12.3672820694151095 -2.6826999999999996 -22.4371554849427532 H
atom -12.4284941168780652 -3.6978799999999996 -6.5417118183665428 C
atom -12.0563248683033049 -0.1621199999999997 -16.8446215511498920 C
atom -24.2987343608939952 -1.7678799999999999 -2.6427882359081174 C
atom -0.1860846242873773 -2.0921199999999995 -20.7435451336083254 C
atom -13.6674259575282413 -0.2701999999999998 -6.1428757868640789 C
atom -10.8173930276531305 -3.5897999999999994 -17.2434575826523648 C
atom -23.0598025202438173 -2.2001999999999997 -3.0416242674105844 C
atom -1.4250164649375543 -1.6598000000000002 -20.3447091021058561 C
atom -14.0322497604074439 -0.2779199999999998 -4.8055676540698729 C
atom -10.4525692247739279 -3.5820799999999999 -18.5807657154465673 C
atom -22.6949787173646165 -2.2079199999999997 -4.3789324002047900 C
atom -1.7898402678167600 -1.6520800000000002 -19.0074009693116501 C
atom -13.1630386864335094 -3.7287599999999999 -3.8044458194520390 C
atom -11.3217802987478677 -0.1312399999999997 -19.5818875500644012 C
atom -23.5641897913385563 -1.7987599999999995 -5.3800542348226239 C
atom -0.9206291938428165 -2.0612399999999997 -18.0062791346938198 C
atom -11.9241068457833261 -3.2694199999999998 -4.2188188509545075 C
atom -12.5607121393980457 -0.5905799999999997 -19.1675145185619336 C
atom -0.3183026468073556 -1.3394199999999998 -7.4743478338037148 C
atom -24.1665163383740165 -2.5205799999999998 -15.9119855357127253 C
atom -11.5372467058174628 -3.1999399999999998 -5.5661532837161474 C
atom -12.9475722793639090 -0.6600599999999998 -17.8201800858002954 C
atom -0.7051627867732250 -1.2699399999999994 -6.1270134010420749 C
atom -23.7796561984081478 -2.5900599999999998 -17.2593199684743652 C
atom -9.7620973293918158 -2.2928399999999995 -3.5443671144262066 C
atom -14.7227216557895595 -1.5671599999999997 -19.8419662550902345 C
atom -2.4803121631988692 -0.3628399999999994 -8.1487995703320166 C
atom -22.0045068219824991 -3.4971600000000000 -15.2375337991844226 C
atom -10.9814413148538463 -2.7637600000000000 -3.2226335162281270 C
atom -13.5033776703275255 -1.0962399999999997 -20.1636998532883176 C
atom -1.2609681777368407 -0.8337599999999994 -8.4705331685300944 C
atom -23.2238508074445349 -3.0262400000000000 -14.9158002009863431 C
atom -8.0873357108054087 -1.7408599999999994 -5.2955549119512808 C
atom -16.3974832743759649 -2.1191399999999998 -18.0907784575651611 C
atom -4.1550737817852790 -3.6708599999999998 -6.3976117728069415 C
atom -20.3297452033960937 -0.1891399999999997 -16.9887215967094996 C
atom -7.7053725346365756 -1.6790999999999998 -6.6216716113868239 C
atom -16.7794464505447962 -2.1808999999999998 -16.7646617581296162 C
atom -4.5370369579541068 -3.6090999999999998 -5.0714950733713993 C
atom -19.9477820272272659 -0.2508999999999993 -18.3148382961450409 C
atom -8.5794805724075545 -2.1152799999999998 -7.6041652126785602 C
atom -15.9053384127738191 -1.7447199999999994 -15.7821681568378782 C
atom -3.6629289201831323 -0.1852799999999997 -4.0890014720796595 C
atom -20.8218900649982430 -3.6747199999999998 -19.2973318974367807 C
atom -9.8477941958399491 -2.6093599999999997 -7.3136672812195123 C
atom -14.6370247893414227 -1.2506399999999993 -16.0726660882969270 C
atom -2.3946152967507386 -0.6793599999999997 -4.3794994035387100 C
atom -22.0902036884306341 -3.1806399999999999 -19.0068339659777301 C
atom -10.7953566905664644 -3.0571199999999998 -8.3585513826198028 C
atom -13.6894622946149038 -0.8028799999999998 -15.0277819868966418 C
atom -1.4470528020242204 -1.1271199999999997 -3.3346153021384204 C
atom -23.0377661831571530 -2.7328799999999998 -20.0517180673780153 C
atom -12.0636703139988608 -3.6245400000000001 -7.9670629511607540 C
atom -12.4211486711825110 -0.2354599999999998 -15.4192704183556906 C
atom -0.1787391785918209 -1.6945399999999997 -3.7261037335974692 C
atom -24.3060798065895511 -2.1654599999999995 -19.6602296359189701 C
atom -12.8741178224083654 -0.2354599999999998 -8.9638475856917470 C
atom -11.6107011627730063 -3.6245400000000001 -14.4224857838246958 C
atom -23.8531106553636931 -2.1654599999999995 -0.2206524685829173 C
atom -0.6317083298176781 -1.6945399999999997 -23.1656809009335234 C
atom -12.5900939221802624 -0.1235199999999997 -10.3783306186053519 C
atom -11.8947250630011130 -3.7364799999999998 -13.0080027509110892 C
atom -24.1371345555917998 -2.0535199999999998 1.1938305643306923 C
atom -0.3476844295895729 -1.8064799999999994 -24.5801639338471318 C
atom -11.3340227082404574 -3.4161000000000001 -10.7090062167491595 C
atom -13.1507962769409144 -0.4438999999999995 -12.6773271527672815 C
atom -0.9083867843502297 -1.4860999999999995 -0.9841604680090620 C
atom -23.5764322008311460 -2.3738999999999999 -22.4021729015073774 C
atom -10.5211267179324359 -2.9413200000000002 -9.6865774488812164 C
atom -13.9636922672489359 -0.9186799999999995 -13.6997559206352264 C
atom -1.7212827746582515 -1.0113199999999996 -2.0065892358770094 C
atom -22.7635362105231245 -2.8486799999999999 -21.3797441336394307 C
atom -13.4421656228645734 -0.6330400000000002 -11.3320080198645243 C
atom -11.0426533623167984 -3.2269599999999996 -12.0543253496519167 C
atom -23.2850628549074870 -2.5630399999999995 2.1475079655898672 C
atom -1.1997561302738859 -1.2969599999999999 -25.5338413351063060 C
atom -10.2517937090954376 -2.7174399999999999 -5.9127867818165365 C
atom -14.2330252760859306 -1.1425599999999998 -17.4735465876999072 C
atom -1.9906157834952467 -0.7874399999999994 -5.7803799029416858 C
atom -22.4942032016861262 -3.0725600000000002 -17.6059534665747535 C
atom -9.3458554066437287 -2.2272200000000000 -4.9257859471444263 C
atom -15.1389635785376431 -1.6327799999999997 -18.4605474223720130 C
atom -2.8965540859469554 -0.2972199999999994 -6.7673807376137960 C
atom -21.5882648992344173 -3.5627800000000001 -16.6189526319026442 C
atom -19.8841214978657952 -1.0460600000000000 -8.3362488293842976 C
atom -4.6006974873155766 -2.8139399999999997 -15.0500845401321399 C
atom -16.8431069799062669 -2.9760599999999995 -0.8482512248903622 C
atom -7.6417120052751049 -0.8839399999999995 -22.5380821446260811 C
atom -19.9575759548213369 -0.8067399999999998 -6.9718248294928511 C
atom -4.5272430303600322 -3.0532599999999999 -16.4145085400235864 C
atom -16.7696525229507252 -2.7367399999999997 -2.2126752247818127 C
atom -7.7151664622306519 -1.1232600000000001 -21.1736581447346310 C
atom -18.8410682090970667 -0.9649999999999995 -6.1798950278429006 C
atom -5.6437507760843051 -2.8950000000000000 -17.2064383416735396 C
atom -17.8861602686749919 -2.8950000000000000 -3.0046050264317574 C
atom -6.5986587165063764 -0.9649999999999995 -20.3817283430846814 C
atom -17.7098695719816881 -1.5053999999999996 -6.6557359261712383 C
atom -6.7749494131996855 -2.3545999999999996 -16.7305974433452000 C
atom -19.0173589057903705 -3.4354000000000000 -2.5287641281034223 C
atom -5.4674600793910022 -0.4245999999999995 -20.8575692414130174 C
atom -17.5898939589542955 -1.8798199999999994 -8.0378738926606097 C
atom -6.8949250262270745 -1.9801800000000001 -15.3484594768558296 C
atom -19.1373345188177595 -3.8098199999999998 -1.1466261616140485 C
atom -5.3474844663636132 -0.0501799999999996 -22.2397072079023914 C
atom -18.6917108132874610 -1.5748800000000001 -8.8805093942888504 C
atom -5.7931081718939117 -2.2851199999999996 -14.5058239752275888 C
atom -18.0355176644845976 -3.5048800000000000 -0.3039906599858077 C
atom -6.4493013206967706 -0.3551199999999994 -23.0823427095306322 C
atom -18.6109109106363633 -1.9608800000000000 -10.2638124941694446 C
atom -5.8739080745450094 -1.8991199999999999 -13.1225208753469946 C
atom -18.1163175671356989 -0.0308800000000000 1.0793124398947838 C
atom -6.3685014180456729 -3.8291199999999996 -24.4656458094112246 C
atom -17.4185002260580291 -2.5051399999999999 -10.7200300590739950 C
atom -7.0663187591233436 -1.3548600000000000 -12.6663033104424478 C
atom -19.3087282517140295 -0.5751400000000001 1.5355300047993337 C
atom -5.1760907334673441 -3.2848599999999997 -24.9218633743157731 C
atom -16.2897500708411691 -2.7251599999999998 -9.9138175907392867 C
atom -8.1950689143402027 -1.1348399999999996 -13.4725157787771508 C
atom -20.4374784069308930 -0.7951599999999994 0.7293175364646269 C
atom -4.0473405782504788 -3.0648400000000002 -24.1156509059810666 C
atom -16.3827923829848565 -2.4202200000000000 -8.6121241575434517 C
atom -8.1020266021965153 -1.4397799999999996 -14.7742092119729893 C
atom -20.3444360947872021 -0.4902199999999995 -0.5723758967312093 C
atom -4.1403828903941715 -3.3697800000000000 -22.8139574727852299 C
atom -17.3548396966965583 -2.8911400000000000 -12.1430090923132532 C
atom -7.1299792884848134 -0.9688599999999995 -11.2433242772031878 C
atom -19.3723887810755002 -0.9611399999999996 -22.9364909619614075 C
atom -5.1124302041058680 -2.8988600000000000 -0.4498424075550320 C
atom -18.3758566483786190 -2.7213000000000003 -12.9809756938220886 C
atom -6.1089623368027546 -1.1386999999999996 -10.4053576756943524 C
atom -18.3513718293934396 -0.7912999999999993 -22.0985243604525721 C
atom -6.1334471557879331 -3.0687000000000002 -1.2878090090638670 C
atom -19.6172369709273191 -2.1808999999999998 -12.4886667956565720 C
atom -4.8675820142540571 -1.6790999999999998 -10.8976665738598726 C
atom -17.1099915068447395 -0.2508999999999993 -22.5908332586180869 C
atom -7.3748274783366305 -3.6090999999999998 -0.7955001108983530 C
atom -19.6955883916798982 -1.8489399999999994 -11.1418675624390229 C
atom -4.7892305935014745 -2.0110599999999996 -12.2444658070774164 C
atom -17.0316400860921640 -3.7789400000000000 -23.9376324918356360 C
atom -7.4531788990892078 -0.0810599999999996 0.5512991223191963 C
atom -20.9810413884019198 -1.2853799999999997 -10.6502220643386352 C
atom -3.5037775967794524 -2.5746199999999999 -12.7361113051778041 C
atom -15.7461870893701423 -3.2153799999999997 1.4657220100639772 C
atom -8.7386318958112295 -0.6446199999999997 -24.8520553795804169 C
atom -21.0324595082708008 -0.8414799999999995 -9.2414448644146212 C
atom -3.4523594769105719 -3.0185200000000001 -14.1448885051018198 C
atom -15.6947689695012613 -2.7714799999999999 0.0569448101399641 C
atom -8.7900500156801105 -1.0885199999999997 -23.4432781796563994 C
atom -22.1930399281683961 -0.2663399999999998 -8.8117940661296998 C
atom -2.2917790570129775 -3.5936599999999999 -14.5745393033867412 C
atom -14.5341885496036642 -2.1963399999999997 -0.3727059881449598 C
atom -9.9506304355777075 -1.6636600000000001 -23.0136273813714816 C
atom -23.3609657937615474 -0.1157999999999997 -9.6165821678556327 C
atom -1.1238531914198242 -3.7441999999999998 -13.7697512016608048 C
atom -13.3662626840105112 -2.0457999999999998 0.4320821135809759 C
atom -11.1185563011708606 -1.8141999999999998 -23.8184154830974144 C
atom -23.3193416014867410 -0.6175999999999997 -10.9544394011274555 C
atom -1.1654773836946306 -3.2423999999999999 -12.4318939683889838 C
atom -13.4078868762853176 -2.5475999999999996 -24.1250606531472016 C
atom -11.0769321088960542 -1.3123999999999993 0.7387272836307610 C
atom -22.0804097608365630 -1.1386999999999996 -11.4076549326299261 C
atom -2.4044092243448101 -2.7213000000000003 -11.9786784368865131 C
atom -14.6468187169354973 -3.0687000000000002 -23.6718451216447328 C
atom -9.8380002682458745 -0.7912999999999993 0.2855117521282939 C
atom -0.0710059750570241 -3.3967999999999998 -11.6454748667715968 C
atom -24.4138130101243469 -0.4631999999999996 -11.7408585027448424 C
atom -12.1714035175336601 -1.4667999999999999 -0.0476918179866256 C
atom -12.3134154676477134 -2.3931999999999998 -23.3386415515298147 C
