#=======================================================
# FHI-aims file: pahs_geometry_fix/FACPEE.in
# Created using the Atomic Simulation Environment (ASE)
# Tue May 25 14:20:52 2021
#=======================================================
lattice_vector -0.0000000000000016 -10.1359999999999992 -0.0000000000000006 
lattice_vector -14.7540629032226054 0.0000000000000000 1.6940569198673903 
lattice_vector 0.0000000000000000 0.0000000000000000 -18.4250000000000007 
atom -9.4027642882237661 -0.1216320000000001 -0.3501575249685123 H
atom -5.3512986149988411 -10.0143679999999993 -16.3807855551640991 H
atom -12.7283300666101429 -5.1896319999999996 -6.3212570952304032 H
atom -2.0257328366124656 -4.9463679999999997 -10.4096859849022092 H
atom -11.0330882390298655 -8.9176527999999990 -1.3919117353231660 H
atom -3.7209746641927408 -1.2183471999999997 -15.3390313448094453 H
atom -11.0980061158040435 -3.8496527999999999 -5.2795028848757495 H
atom -3.6560567874185628 -6.2863471999999989 -11.4514401952568612 H
atom -13.3081647387067914 -9.0757743999999985 -0.8543131582796141 H
atom -1.4458981645158169 -1.0602256000000001 -15.8766299218529969 H
atom -8.8229296161271176 -4.0077743999999997 -5.8171014619193020 H
atom -5.9311332870954887 -6.1282255999999995 -10.9138416182133113 H
atom -14.0296384146743751 -0.5088272000000001 0.6969987251019016 H
atom -0.7244244885482319 -9.6271727999999985 -17.4279418052345143 H
atom -8.1014559401595321 -5.5768271999999994 -7.3684133453008176 H
atom -6.6526069630630733 -4.5591727999999998 -9.3625297348317940 H
atom -14.6257025559645690 -2.3110079999999997 1.5356036246645413 H
atom -0.1283603472580402 -7.8249919999999999 -18.2665467047971539 H
atom -7.5053917988693408 -7.3790079999999989 -8.2070182448634590 H
atom -7.2486711043532672 -2.7569919999999999 -8.5239248352691526 H
atom -0.5739330469353623 -3.9824343999999998 -17.1283111858171608 H
atom -14.1801298562872464 -6.1535655999999994 0.3973681056845489 H
atom -6.8030984046759437 -9.0504344000000003 -9.6621603542491474 H
atom -7.9509644985466617 -1.0855655999999985 -7.0687827258834641 H
atom -13.7537374383841140 -5.0730679999999992 -14.0709951392996206 H
atom -1.0003254648384929 -5.0629320000000000 -2.6599479408329905 H
atom -8.3773569164497967 -0.0050679999999994 -11.0254194808992967 H
atom -6.3767059867728122 -10.1309319999999996 -5.7055235992333158 H
atom -11.5598082846749115 -4.4294320000000003 -14.0686364032839002 H
atom -3.1942546185476952 -5.7065679999999990 -2.6623066768487105 H
atom -10.5712860701589992 -9.4974319999999999 -11.0277782169150154 H
atom -4.1827768330636079 -0.6385679999999994 -5.7031648632175953 H
atom -7.9893250620950411 -1.5812159999999991 -12.4610606778918083 H
atom -6.7647378411275660 -8.5547839999999997 -4.2698824022408024 H
atom -14.1417692927388678 -6.6492160000000000 -12.6353539423071073 H
atom -0.6122936104837384 -3.4867839999999997 -4.0955891378255034 H
atom -6.2335915766115511 -1.3632919999999995 -10.9601834513560270 H
atom -8.5204713266110570 -8.7727079999999980 -5.7707596287765819 H
atom -1.1434398749997532 -6.4312920000000000 -15.8302880887102777 H
atom -13.6106230282228537 -3.7047080000000001 -0.9006549914223335 H
atom -4.0898262367733063 -2.1924168000000002 -11.4495399218127609 H
atom -10.6642366664493000 -7.9435832000000000 -5.2814031583198506 H
atom -3.2872052148379978 -7.2604167999999989 -15.3409316182535456 H
atom -11.4668576883846089 -2.8755831999999995 -1.3900114618790651 H
atom -3.6575321937088847 -3.1674999999999995 -13.4964457895648735 H
atom -11.0965307095137220 -6.9684999999999997 -3.2344972905677389 H
atom -3.7194992579024202 -8.2355000000000000 -13.2940257505014312 H
atom -11.0345636453201870 -1.9004999999999987 -3.4369173296311786 H
atom -3.3890082488702333 -4.2419159999999998 -15.2297476255064623 H
atom -11.3650546543523738 -5.8940839999999985 -1.5011954546261495 H
atom -3.9880232027410716 -9.3099159999999994 -11.5607239145598459 H
atom -10.7660397004815351 -0.8260840000000002 -5.1702191655727656 H
atom -2.9286814862896899 -5.0021160000000000 -17.3830522014063256 H
atom -11.8253814169329186 -5.1338839999999992 0.6521091212737128 H
atom -4.4483499653216168 -10.0701160000000005 -9.4074193386599827 H
atom -10.3057129379009904 -0.0658839999999984 -7.3235237414726280 H
atom -4.5944151880635218 -4.8997424000000001 -0.5982381751532956 H
atom -10.1596477151590872 -5.2362576000000001 -16.1327049049793168 H
atom -2.7826162635477849 -9.9677424000000006 -7.7672333649130101 H
atom -11.9714466396748218 -0.1682575999999983 -8.9637097152196006 H
atom -6.7071969958049991 -3.9631759999999998 -0.1898242242282852 H
atom -8.0468659074176099 -6.1728239999999994 -16.5411188559043261 H
atom -0.6698344558063076 -9.0311760000000003 -8.1756473158380203 H
atom -14.0842284474162991 -1.1048239999999987 -8.5552957642945895 H
atom -9.3791577875786096 -3.5253007999999997 -0.9756330160403014 H
atom -5.3749051156439958 -6.6106991999999991 -15.7553100640923116 H
atom -12.7519365672552993 -8.5933007999999997 -5.6957816041586140 H
atom -2.0021263359673083 -1.5426991999999999 -11.0351614759739949 H
atom -8.6886676437077934 -3.3844103999999997 -3.2069548798900955 H
atom -6.0653952595148146 -6.7515896000000000 -13.5239882002425169 H
atom -13.4424267111261173 -8.4524103999999998 -3.4644597403088220 H
atom -1.3116361920964896 -1.6835895999999990 -13.2664833398237896 H
atom -7.0435896299984728 -1.8325887999999995 -3.8288297264553086 H
atom -7.7104732732241343 -8.3034111999999993 -12.9021133536773025 H
atom -0.3334418216128313 -6.9005888000000004 -4.5366418136109967 H
atom -14.4206210816097755 -3.2354112000000002 -12.1943012665216148 H
atom -6.0314609148374023 -0.4834871999999985 -2.1946670311582102 H
atom -8.7226019883852057 -9.6525128000000002 -14.5362760489743987 H
atom -1.3455705367739017 -5.5514871999999995 -6.1708045089080956 H
atom -13.4084923664487050 -4.5845127999999997 -10.5601385712245168 H
atom -6.6747380574179074 -0.6710031999999992 0.0478163505480067 H
atom -8.0793248458047007 -9.4649967999999998 -16.7787594306806191 H
atom -0.7022933941933965 -5.7390031999999991 -8.4132878906143116 H
atom -14.0517695090292101 -4.3969967999999993 -8.3176551895182964 H
atom -8.6237497669336136 -4.8987287999999989 -13.0809962303375116 H
atom -6.1303131362889927 -5.2372711999999986 -3.6499468497950991 H
atom -13.5073445879002971 -9.9667287999999985 -12.0154183898614040 H
atom -1.2467183153223105 -0.1692712000000005 -4.7155246902712067 H
atom -9.1106338427399596 -5.3882976000000005 -10.8490998519818866 H
atom -5.6434290604826485 -4.7477023999999997 -5.8818432281507249 H
atom -13.0204605120939494 -0.3202975999999996 -14.2473147682170289 H
atom -1.7336023911286584 -9.8157023999999993 -2.4836283119155835 H
atom -10.5004665682235281 -3.9540535999999995 -9.6061296901303788 H
atom -4.2535963349990782 -6.1819463999999993 -7.1248133900022319 H
atom -11.6306277866103809 -9.0220535999999996 -15.4902849300685386 H
atom -3.1234351166122272 -1.1139463999999999 -1.2406581500640752 H
atom -11.4034152179007524 -2.0505128000000004 -10.6153234066344950 H
atom -3.3506476853218543 -8.0854871999999993 -6.1156196734981165 H
atom -10.7276791369331583 -7.1185127999999986 -14.4810912135644223 H
atom -4.0263837662894497 -3.0174871999999993 -2.2498518665681893 H
atom -10.9076787043524739 -1.5416855999999990 -12.8390237191420393 H
atom -3.8463841988701351 -8.5943144000000000 -3.8919193609905713 H
atom -11.2234156504814369 -6.6096855999999997 -12.2573909010568780 H
atom -3.5306472527411694 -3.5263143999999995 -4.4735521790757344 H
atom -8.5042418574175098 -2.2897223999999996 -17.2385005913884370 C
atom -6.2498210458050965 -7.8462775999999996 0.5075575112558246 C
atom -13.6268524974163991 -7.3577223999999992 -7.8579140288104803 C
atom -1.1272104058062078 -2.7782776000000000 -8.8730290513221330 C
atom -9.8360419354817381 -2.0261864000000007 -16.8368462200884075 C
atom -4.9180209677408699 -8.1098135999999990 0.1059031399557957 C
atom -12.2945606172553994 -7.0941863999999990 -8.2596248686745053 C
atom -2.4595022859672082 -3.0418136000000002 -8.4713182114581063 C
atom -10.2776802183848677 -2.5562991999999998 -15.5885124496203780 C
atom -4.4763826848377395 -7.5797007999999995 -1.1424306305122338 C
atom -11.8534141364490431 -7.6242991999999994 -9.5079021705785394 C
atom -2.9006487667735645 -2.5117007999999998 -7.2230409095540722 C
atom -9.3157153170947531 -2.8046311999999993 -14.5879374607957306 C
atom -5.4383475861278541 -7.3313687999999999 -2.1430056193368805 C
atom -12.8153790377391577 -7.8726311999999989 -10.5084771594031849 C
atom -1.9386838654834502 -2.2633688000000003 -6.2224659207294257 C
atom -7.9480136859660178 -2.7529375999999992 -14.9292265372674375 C
atom -6.8060492172565894 -7.3830623999999991 -1.8017165428651731 C
atom -14.1830806688678930 -7.8209375999999988 -10.1671880829314780 C
atom -0.5709822343547145 -2.3150624000000004 -6.5637549972011326 C
atom -7.5762113008048093 -2.7884135999999997 -16.2948317716480950 C
atom -7.1778516024177978 -7.3475863999999991 -0.4361113084845176 C
atom -14.5548830540291014 -7.8564135999999998 -8.8015828485508205 C
atom -0.1991798491935049 -2.2795863999999999 -7.9293602315817902 C
atom -10.8058756703202352 -1.2142928000000013 0.8224797881108754 C
atom -3.9481872329023697 -8.9217071999999984 -17.5534228682434872 C
atom -11.3252186845136738 -6.2822927999999996 -7.4938944083097931 C
atom -3.4288442187089347 -3.8537071999999997 -9.2370486718228175 C
atom -10.4060405656429040 -0.2422503999999992 -0.1188841544175323 C
atom -4.3480223375797031 -9.8937495999999996 -16.6120589257150826 C
atom -11.7250537891910049 -5.3102504000000001 -6.5525304657813850 C
atom -3.0290091140316053 -4.8257495999999991 -10.1784126143512257 C
atom -11.3281694970943185 -9.5592615999999992 -0.7407930969258185 C
atom -3.4258934061282886 -0.5767383999999994 -15.9901499832067930 C
atom -10.8029248577395922 -4.4912616000000005 -5.9306215232730972 C
atom -3.9511380454830167 -5.6447383999999987 -10.8003215568595134 C
atom -12.6722646275778974 -9.6545399999999990 -0.4353795115259016 C
atom -2.0817982756447098 -0.4814599999999998 -16.2955635686067097 C
atom -9.4588297272560133 -4.5865399999999994 -6.2360351086730166 C
atom -5.2952331759665956 -5.5494600000000007 -10.4949079714595950 C
atom -13.0957062329003850 -0.4469975999999991 0.4865849220742930 C
atom -1.6583566703222232 -9.6890023999999997 -17.2175280022069046 C
atom -9.0353881219335257 -5.5149976000000001 -7.1579995422732106 C
atom -5.7186747812890832 -4.6210023999999992 -9.5729435378594001 C
atom -12.1853805517715497 -1.3024759999999982 1.1209041101184776 C
atom -2.5686823514510575 -8.8335239999999988 -17.8518471902510889 C
atom -9.9457138030623575 -6.3704760000000000 -7.7923187303173931 C
atom -4.8083491001602470 -3.7655240000000001 -8.9386243498152176 C
atom -12.6427565017714514 -2.3140487999999992 -16.3505976253656335 C
atom -2.1113064014511580 -7.8219512000000000 -0.3803454547669777 C
atom -9.4883378530624594 -7.3820487999999989 -8.7458169948332838 C
atom -5.2657250501601478 -2.7539512000000004 -7.9851260852993278 C
atom -13.9868516322550303 -2.7316519999999995 -16.3086615399657155 C
atom -0.7672112709675790 -7.4043479999999988 -0.4222815401668970 C
atom -8.1442427225788805 -7.7996519999999991 -8.7877530802332018 C
atom -6.6098201806437267 -2.3363480000000001 -7.9431899998994107 C
atom -14.4043916124162301 -3.7239663999999992 -15.4610747291334683 C
atom -0.3496712908063776 -6.4120336000000000 -1.2698683509991442 C
atom -7.7267027424176806 -8.7919663999999980 -9.6353398910654473 C
atom -7.0273601608049265 -1.3440336000000015 -7.0956031890671616 C
atom -13.4763610558035278 -4.3503711999999997 -14.6408534093931273 C
atom -1.2777018474190787 -5.7856287999999996 -2.0900896707394834 C
atom -8.6547332990303811 -9.4183711999999993 -10.4555612108057918 C
atom -6.0993296041922251 -0.7176287999999997 -6.2753818693268224 C
atom -12.1647248637070398 -3.9439175999999998 -14.6366850695693369 C
atom -2.5893380395155683 -6.1920823999999994 -2.0942580105632738 C
atom -9.9663694911268710 -9.0119175999999985 -10.4597295506295787 C
atom -4.7876934120957362 -1.1240824000000009 -6.2712135295030338 C
atom -11.7132505388684276 -2.9009231999999998 -15.4734282113172803 C
atom -3.0408123643541796 -7.2350767999999990 -1.2575148688153324 C
atom -10.4178438159654814 -7.9689231999999999 -9.6229864088816353 C
atom -4.3362190872571249 -2.1670767999999998 -7.1079566712509736 C
atom -6.8650654688694797 -2.6343464000000001 -13.9314878151857027 C
atom -7.8889974343531311 -7.5016535999999991 -2.7994552649469080 C
atom -0.5119659827418249 -7.7023463999999997 -12.8589837248806038 C
atom -14.2420969204807815 -2.4336535999999995 -3.8719593552520095 C
atom -7.0789993809662066 -1.9957783999999994 -12.6982439898476276 C
atom -7.6750635222564005 -8.1402216000000003 -4.0326990902849849 C
atom -0.2980320706450977 -7.0637784000000003 -14.0922275502186789 C
atom -14.4560308325775093 -3.0722216000000002 -2.6387155299139304 C
atom -6.0653952595148137 -1.8113031999999996 -11.7938807002425161 C
atom -8.6886676437077934 -8.3246967999999999 -4.9370623798900954 C
atom -1.3116361920964905 -6.8793032000000007 -14.9965908398237904 C
atom -13.4424267111261173 -3.2566967999999998 -1.7343522403088221 C
atom -4.7950704435473464 -2.2795863999999999 -12.0945090010430985 C
atom -9.9589924596752599 -7.8564135999999998 -4.6364340790895140 C
atom -2.5819610080639577 -7.3475863999999991 -14.6959625390232098 C
atom -12.1721018951586490 -2.7884135999999997 -2.0349805411094040 C
atom -4.5442513741925650 -2.8603791999999997 -13.2969804686808448 C
atom -10.2098115290300431 -7.2756207999999996 -3.4339626114517667 C
atom -2.8327800774187408 -7.9283791999999993 -13.4934910713854617 C
atom -11.9212828258038659 -2.2076207999999999 -3.2374520087471490 C
atom -5.5622817145149224 -3.0205280000000001 -14.2616380412099950 C
atom -9.1917811887076848 -7.1154719999999987 -2.4693050389226170 C
atom -1.8147497370963834 -8.0885280000000002 -12.5288334988563115 C
atom -12.9393131661262260 -2.0474719999999995 -4.2021095812762983 C
atom -5.2893315508053051 -3.5374639999999995 -15.6048380942275422 C
atom -9.4647313524173029 -6.5985359999999993 -1.1261049859050694 C
atom -2.0876999008059993 -8.6054639999999996 -11.1856334458387643 C
atom -12.6663630024166078 -1.5305360000000001 -5.5453096342938482 C
atom -4.0544164858055733 -4.1506919999999994 -15.9161406584204421 C
atom -10.6996464174170356 -5.9853079999999999 -0.8148024217121689 C
atom -3.3226149658057316 -9.2186919999999990 -10.8743308816458644 C
atom -11.4314479374168751 -0.9173080000000002 -5.8566121984867463 C
atom -3.7858925409669237 -4.6199887999999998 -17.1777624943620282 C
atom -10.9681703622556874 -5.5160111999999994 0.4468194142294171 C
atom -3.5911389106443847 -9.6879887999999994 -9.6127090457042783 C
atom -11.1629239925782215 -0.4480112000000002 -7.1182340344283324 C
atom -4.7626115051602573 -4.5348464000000002 0.2741515737331927 C
atom -9.9914513980623489 -5.6011535999999991 -17.0050946538658039 C
atom -2.6144199464510476 -9.6028463999999989 -8.6396231137994981 C
atom -12.1396429567715600 -0.5331535999999998 -8.0913199663331099 C
atom -5.9753954758051560 -3.9307408000000001 0.5368505525462950 C
atom -8.7786674274174512 -6.2052592000000004 -17.2677936326789023 C
atom -1.4016359758061485 -8.9987408000000002 -8.9023220926125983 C
atom -13.3524269274164578 -1.1372591999999984 -7.8286209875200123 C
atom -6.2527718583857412 -3.3833967999999994 -16.6181411773602008 C
atom -8.5012910448368668 -6.7526031999999994 -0.1128019027724109 C
atom -1.1242595932255646 -8.4513967999999995 -10.1723303627061039 C
atom -13.6298033099970421 -1.6846032000000000 -6.5586127174265068 C
atom -8.1014559401595339 -2.1022064000000000 -0.2471508453008153 C
atom -6.6526069630630733 -8.0337935999999992 -16.4837922348317960 C
atom -14.0296384146743769 -7.1702063999999996 -6.4242637748981002 C
atom -0.7244244885482308 -2.9657935999999996 -10.3066793052345123 C
atom -8.6886676437077917 -2.9039639999999998 -1.2225823798900952 C
atom -6.0653952595148146 -7.2320359999999999 -15.5083607002425179 C
atom -13.4424267111261173 -7.9719639999999989 -5.4488322403088203 C
atom -1.3116361920964896 -2.1640359999999998 -11.2821108398237904 C
atom -8.2873571327401372 -2.8167944000000000 -2.5455132281104866 C
atom -6.4667057704824691 -7.3192055999999992 -14.1854298520221249 C
atom -13.8437372220937718 -7.8847943999999996 -4.1259013920884291 C
atom -0.9103256811288348 -2.2512055999999996 -12.6050416880441816 C
atom -7.3106381685468023 -1.9096223999999999 -2.9100822962057107 C
atom -7.4434247346758067 -8.2263775999999993 -13.8208607839269018 C
atom -0.0663932830645021 -6.9776223999999996 -5.4553892438605969 C
atom -14.6876696201581041 -3.1583775999999997 -11.2755538362720138 C
atom -6.7145740272566075 -1.1109056000000002 -1.9430371957683508 C
atom -8.0394888759660006 -9.0250943999999986 -14.7879058843642603 C
atom -0.6624574243546967 -6.1789055999999984 -6.4224343442979572 C
atom -14.0916054788679102 -3.9570943999999995 -10.3085087358346552 C
atom -7.1011304753210398 -1.2163199999999998 -0.6181154044678270 C
atom -7.6529324279015656 -8.9196799999999996 -16.1128276756647857 C
atom -0.2759009762902644 -6.2843199999999992 -7.7473561355984808 C
atom -14.4781619269323425 -3.8516799999999995 -8.9835869445341299 C
atom -9.6978455462882192 -3.1522960000000002 -13.1842963865711660 C
atom -5.0562173569343880 -6.9837040000000004 -3.5466466935614456 C
atom -12.4332488085456916 -8.2202959999999994 -11.9121182336277514 C
atom -2.3208140946769160 -1.9157039999999994 -4.8188248465048602 C
atom -9.1858795635463952 -4.3047591999999995 -12.5760951616905636 C
atom -5.5681833396762119 -5.8312407999999998 -4.1548479184420470 C
atom -12.9452147912875155 -9.3727591999999991 -12.5203194585083519 C
atom -1.8088481119350921 -0.7632408000000003 -4.2106236216242587 C
atom -9.4765346027398802 -4.5997167999999995 -11.2566572403691740 C
atom -5.2775283004827287 -5.5362831999999997 -5.4742858397634357 C
atom -12.6545597520940305 -9.6677167999999991 -13.8397573798297397 C
atom -2.0995031511285767 -0.4682832000000002 -2.8911857003028714 C
atom -10.2998113127397009 -3.7543743999999992 -10.5227813642405756 C
atom -4.4542515904829063 -6.3816255999999987 -6.2081617158920359 C
atom -11.8312830420942099 -8.8223743999999993 -14.5736332559583417 C
atom -2.9227798611283990 -1.3136256000000004 -2.1573098241742694 C
atom -10.8265313583847487 -2.6313056000000001 -11.1182335322013106 C
atom -3.9275315448378585 -7.5046943999999991 -5.6127095479313001 C
atom -11.3045629964491621 -7.6993055999999997 -13.9781810879976049 C
atom -3.4494999067734455 -2.4366943999999995 -2.7527619921350053 C
atom -10.5314501003202956 -2.3292527999999999 -12.4363371705986570 C
atom -4.2226128029023107 -7.8067471999999993 -4.2946059095339528 C
atom -11.5996442545136134 -7.3972527999999995 -12.6600774496002604 C
atom -3.1544186487089934 -2.7387471999999997 -4.0708656305323530 C
