#=======================================================
# FHI-aims file: pahs_geometry_fix/VEBJOC.in
# Created using the Atomic Simulation Environment (ASE)
# Tue May 25 14:20:53 2021
#=======================================================
lattice_vector 6.1584144603396576 0.0000000000000000 -0.7125528644805257 
lattice_vector -2.9071232607925621 10.5740237532361157 -1.0868578667687971 
lattice_vector 0.0000000000000000 0.0000000000000000 14.6999999999999993 
atom 0.4367552463815050 6.8001546757061462 9.2477506581330289 H
atom 2.8145359531655898 3.7738690775299695 3.6528386106176476 H
atom -0.2945766175814823 7.4800644030392283 4.4221953705198738 H
atom 3.5458678171285776 3.0939593501968878 8.4783938982308023 H
atom -1.4678205039347330 9.4626938567710006 0.9630099126777386 H
atom 4.7191117034818273 1.1113298964651157 11.9375793560729395 H
atom 3.0693815845827213 0.6450154489474030 1.9041637999729699 H
atom 0.1819096149643745 9.9290083042887112 10.9964254687777068 H
atom 5.2656991899222536 0.3373113577282321 2.7601469866655699 H
atom -2.0144079903751577 10.2367123955078831 10.1404422820851075 H
atom 2.9973082525632382 8.7986451650677715 2.6187453247510613 H
atom 0.2539829469838575 1.7753785881683437 10.2818439439996148 H
atom 1.3872424414125872 7.0232665768994282 2.7514655215100579 H
atom 1.8640487581345078 3.5507571763366874 10.1491237472406191 H
atom -1.6111482313075653 7.0697922814136662 -0.0375010244035661 H
atom 4.8624394308546606 3.5042314718224485 12.9380902931542430 H
atom 0.3667243560608955 5.2404861721038190 13.6552789755043484 H
atom 2.8845668434862000 5.3335375811322967 -0.7546897067536726 H
atom 0.3448798912522966 7.7391279849935133 13.3508987522229852 H
atom 2.9064113082947993 2.8348957682426028 -0.4503094834723091 H
atom 2.0190891414846575 9.4447180163904978 -1.1432198185260436 H
atom 1.2322020580624384 1.1293057368456172 14.0438090872767205 H
atom -2.2314485190417748 9.4447180163904978 12.8196641685384130 H
atom 5.4827397185888707 1.1293057368456172 0.0809251002122618 H
atom -2.0373097895200614 7.7888258966337229 11.1076083519283824 H
atom 5.2886009890671568 2.7851978566023932 1.7929809168222937 H
atom 2.4392834444965001 6.0885228771133555 10.1628831821279828 H
atom 0.8120077550505956 4.4855008761227602 2.7377060866226932 H
atom 1.8690545347500138 6.5072542177415054 5.7507412672890501 H
atom 1.3822366647970818 4.0667695354946103 7.1498480014616268 H
atom 3.4504394151567195 8.3555935698071782 5.7100093252596213 H
atom -0.1991482156096243 2.2184301834289371 7.1905799434910556 H
atom 2.8800083757765442 10.4080115803103084 6.8183527661842787 H
atom 0.3712828237705516 0.1660121729258070 6.0822365025663983 H
atom 3.6455206695449704 0.1353475040414223 8.8298016063460061 H
atom -0.3942294699978748 10.4386762491946925 4.0707876624046717 H
atom -0.7868426496835803 8.8673763194638067 7.8924555699604575 H
atom 4.0381338492306762 1.7066474337723090 5.0081336987902194 H
atom -0.5499472310087008 6.3951695659572030 6.8281964901671524 C
atom 3.8012384305557960 4.1788541872789127 6.0723927785835246 C
atom -1.1664257489508669 5.9965288704602013 5.6165100144665896 C
atom 4.4177169484979624 4.5774948827759143 7.2840792542840873 C
atom -0.8390492651489188 5.6972839982436190 8.0192714880898226 C
atom 4.0903404646960144 4.8767397549924967 4.8813177806608552 C
atom -0.2069755319800994 6.0324805512212043 9.2406328768503414 C
atom 3.4582667315271949 4.5415432020149114 3.6599563919003355 C
atom -0.4524370350147327 5.3483412143868279 10.4212803024897109 C
atom 3.7037282345618281 5.2256825388492878 2.4793089662609655 C
atom -1.5000448587759809 6.3095199735559904 3.2001256467623507 C
atom 4.7513360583230764 4.2645037796801253 9.7004636219883267 C
atom -0.9177817883044374 6.6870126215465193 4.4034764318155739 C
atom 4.1690729878515329 3.8870111316895959 8.4971128369351021 C
atom -1.1890134501356682 6.9926019080150432 1.9605838465461638 C
atom 4.4403046496827638 3.5814218452210724 10.9400054222045124 C
atom -0.1793901104674195 8.0870133664749808 1.9019688077741372 C
atom 3.4306813100145148 2.4870103867611344 10.9986204609765394 C
atom -0.5224152772658659 9.3167723289763416 1.3230832801605106 C
atom 3.7737064768129618 1.2572514242597743 11.5775059885901648 C
atom 0.4134718511602359 10.3456248401662165 1.2409577978432107 C
atom 2.8378193483868595 0.2283989130699001 11.6596314709074651 C
atom 1.6833530254575280 10.1574072173586121 1.7264709112774475 C
atom 1.5679381740895675 0.4166165358775029 11.1741183574732297 C
atom 2.0489959026335787 8.9551407166156665 2.2708150994015202 C
atom 1.2022952969135172 1.6188830366204494 10.6297741693491545 C
atom 1.1152470108716577 7.9252308030504697 2.3528355016461533 C
atom 2.1360441886754380 2.6487929501856469 10.5477537671045241 C
atom 4.3136463068911510 6.6024204315206303 0.1142793372585440 C
atom -1.0623551073440560 3.9716033217154849 12.7863099314921325 C
atom -0.1041256028913539 5.0110298566585953 12.7873471245636949 C
atom 3.3554168024384490 5.5629938965775203 0.1132421441869828 C
atom 0.2211045758016155 5.6962265958682954 11.6561278258994001 C
atom 3.0301866237454798 4.8777971573678203 1.2444614428512766 C
atom 1.2476273080200608 6.7694900068217612 11.7304099077048445 C
atom 2.0036638915270344 3.8045337464143545 1.1701793610458302 C
atom 1.1527108232982821 7.7486446063714256 12.7151886231772551 C
atom 2.0985803762488131 2.8253791468646900 0.1854006455734199 C
atom 2.1342507694499990 8.7256844011704437 12.8434947247982727 C
atom 1.1170404300970957 1.8483393520656732 0.0570945439524035 C
atom 3.2044989910942054 8.7394306320496504 11.9931025900060710 C
atom 0.0467922084528898 1.8345931211864659 0.9074866787446065 C
atom 3.3218611022242115 7.7771944705051634 11.0256466693431161 C
atom -0.0705699026771155 2.7968292827309527 1.8749425994075617 C
atom 2.3531161592637053 6.7916954567035566 10.8896487141458973 C
atom 0.8981750402833906 3.7823282965325586 2.0109405546047796 C
atom 0.4164866567180682 7.5413937408079974 6.8281688463110175 C
atom 2.8348045428290276 3.0326300124281178 6.0724204224396594 C
atom 1.6439816824643667 7.3975870177639864 6.1949676657407791 C
atom 1.6073095170827283 3.1764367354721292 6.7056216030098970 C
atom 2.5453509339624163 8.4623912097148644 6.1752070781343864 C
atom 0.7059402655846798 2.1116325435212522 6.7253821906162887 C
atom 2.2051450180182113 9.6572558938305448 6.7887459896320257 C
atom 1.0461461815288846 0.9167678594055713 6.1118432791186503 C
atom 0.9974945857205009 9.8095218358771437 7.3592714935967196 C
atom 2.2537966138265948 0.7645019173589712 5.5413177751539573 C
atom 0.1005394747263158 8.7510620581782099 7.4055974136185689 C
atom 3.1507517248207790 1.8229616950579064 5.4949918551321071 C
