#=======================================================
# FHI-aims file: pahs_geometry_fix/KEGHEJ01.in
# Created using the Atomic Simulation Environment (ASE)
# Tue May 25 14:20:53 2021
#=======================================================
lattice_vector 5.4365000000000006 4.5575000000000001 0.0000000000000006 
lattice_vector -5.4364999999999988 4.5575000000000001 -0.0000000000000001 
lattice_vector -0.0000000000000000 -0.0000000000000000 9.0320000000000000 
atom 0.6730387000000000 2.2710022499999996 2.8229516000000001 C
atom -0.6730386999999987 6.8439977500000007 6.2090484000000004 C
atom -0.6730386999999991 2.2864977500000001 7.3389515999999988 C
atom 0.6730387000000007 6.8285022499999997 1.6930484000000006 C
atom -0.6730386999999981 6.8285022500000014 1.6930484000000003 C
atom 0.6730387000000000 2.2864977500000001 7.3389516000000006 C
atom 0.6730387000000007 6.8439977500000007 6.2090484000000004 C
atom -0.6730386999999991 2.2710022500000000 2.8229516000000001 C
atom 1.1786332000000004 1.1443882500000002 3.6602180000000000 C
atom -1.1786331999999990 7.9706117499999998 5.3717820000000005 C
atom -1.1786332000000002 3.4131117499999992 8.1762180000000004 C
atom 1.1786332000000013 5.7018882500000014 0.8557820000000005 C
atom -1.1786331999999995 5.7018882500000005 0.8557820000000003 C
atom 1.1786332000000008 3.4131117500000001 8.1762180000000004 C
atom 1.1786332000000017 7.9706117499999998 5.3717820000000005 C
atom -1.1786332000000004 1.1443882500000004 3.6602180000000000 C
atom -3.0746669399999988 5.1333856999999998 4.0815608000000001 C
atom 3.0746669400000006 3.9816143000000004 4.9504392000000008 C
atom -2.3618330599999990 3.9816142999999999 8.5975608000000001 C
atom 2.3618330600000008 5.1333857000000016 0.4344392000000004 C
atom -2.3618330599999986 5.1333857000000007 0.4344392000000001 C
atom 2.3618330599999999 3.9816143000000004 8.5975608000000001 C
atom -3.0746669399999993 3.9816142999999999 4.9504391999999999 C
atom 3.0746669400000015 5.1333857000000007 4.0815608000000010 C
atom 0.0000000000000001 0.5450770000000004 4.1086568000000003 C
atom 0.0000000000000011 8.5699229999999993 4.9233432000000006 C
atom 0.0000000000000005 4.0124229999999992 8.6246568000000003 C
atom 0.0000000000000005 5.1025770000000001 0.4073432000000003 C
atom 1.2400656500000000 2.9318397500000000 2.3587068000000002 H
atom -1.2400656499999985 6.1831602500000002 6.6732932000000007 H
atom -1.2400656499999987 1.6256602499999999 6.8747068000000002 H
atom 1.2400656500000009 7.4893397500000010 2.1572932000000007 H
atom -1.2400656499999985 7.4893397500000001 2.1572932000000007 H
atom 1.2400656500000000 1.6256602500000001 6.8747068000000002 H
atom 1.2400656500000000 6.1831602500000002 6.6732932000000007 H
atom -1.2400656499999991 2.9318397500000000 2.3587068000000002 H
atom -2.1852555399999996 5.4691822999999999 3.8015688000000001 H
atom 2.1852555400000004 3.6458177000000007 5.2304311999999999 H
atom -3.2512444599999997 3.6458177000000003 8.3175688000000001 H
atom 3.2512444600000001 5.4691823000000017 0.7144312000000006 H
atom -3.2512444599999988 5.4691823000000008 0.7144312000000002 H
atom 3.2512444600000001 3.6458177000000003 8.3175688000000001 H
atom -2.1852555399999991 3.6458176999999994 5.2304311999999999 H
atom 2.1852555400000004 5.4691822999999991 3.8015688000000005 H
