#=======================================================
# FHI-aims file: pahs_geometry_fix/BOXGAW.in
# Created using the Atomic Simulation Environment (ASE)
# Tue May 25 14:20:52 2021
#=======================================================
lattice_vector -0.0000000000000006 -3.7818000000000001 -0.0000000000000002 
lattice_vector 0.0000000000000000 0.0000000000000000 -21.6630000000000003 
lattice_vector 25.8616339853652093 0.0000000000000000 4.0742517896524753 
atom 23.6116718286384319 -3.6607824000000000 -8.9314001160472909 H
atom 10.6808548359558309 -2.0119176000000003 -0.1370260108735268 H
atom 25.0082000638481574 -2.8401318000000000 -7.0433395194060564 H
atom 12.0773830711655510 -2.8325681999999999 1.7510345857677050 H
atom 1.4223898691950860 -2.0081358000000002 -11.4739361515691147 H
atom 14.3532068618776911 -3.6645642000000000 1.3946897432571235 H
atom 3.2068426141852853 -1.4030478000000000 -13.0125047780830929 H
atom 16.1376596068678921 -0.4878522000000000 -0.1438788832568553 H
atom 5.1206035291023104 -0.8093051999999998 -14.5956911456488125 H
atom 18.0514205217849160 -1.0815948000000002 -1.7270652508225723 H
atom 5.9481758166339986 -0.7223237999999998 -16.8915710883799335 H
atom 18.8789928093166033 -1.1685762000000006 -4.0229451935536922 H
atom 6.9567795420632415 -2.2047893999999997 -17.5342062685834854 H
atom 19.8875965347458461 -3.4679106000000002 -4.6655803737572468 H
atom 9.3101882347314753 -1.7018100000000003 -18.0299693557251075 H
atom 22.2410052274140781 -0.1890900000000002 -5.1613434608988706 H
atom 9.9567290843656036 -0.7223237999999998 1.4386089390162027 H
atom 22.8875460770482064 -1.1685762000000006 -7.3557651661575596 H
atom 9.3619115027022062 -0.1512720000000001 -0.7997358521458029 H
atom 22.2927284953848108 -1.7396280000000000 -9.5941099573195636 H
atom 7.7067669276388315 -3.5775828000000001 -2.5335719666835623 H
atom 20.6375839203214362 -2.0951172000000002 -11.3279460718573262 H
atom 5.3274966009852331 -0.1663992000000002 -3.3416631313315905 H
atom 18.2583135936678325 -1.7245007999999999 -12.1360372365053522 H
atom 3.1551193462145548 -1.2442121999999998 -3.0773362816623990 H
atom 16.0859363388971595 -0.6466878000000001 -11.8717103868361615 H
atom 1.4482515031804513 -2.0799900000000000 -1.5265448997794655 H
atom 14.3790684958630575 -3.5927099999999998 -10.3209190049532289 H
atom 0.6724024836194950 -2.6472599999999997 -20.9288424534690378 H
atom 13.6032194763021010 -3.0254400000000001 -8.0602165586427965 H
atom 0.1551698039121908 -3.1502393999999998 -19.2339614892620858 H
atom 13.0859867965947956 -2.5224606000000001 -6.3653355944358472 H
atom 24.3099359462432965 -0.1890900000000002 -13.5439293177266720 H
atom 11.3791189535606900 -1.7018100000000003 -4.7495552125529095 H
atom 23.3789171227701509 -0.2760713999999999 -11.3509983821541631 H
atom 10.4481001300875427 -1.6148286000000003 -2.5566242769804002 H
atom 14.5083766657898838 -1.7774459999999999 -16.4961657460049658 H
atom 1.5775596731072776 -0.1134540000000001 -7.7017916408312015 H
atom 13.1635716985508910 -0.9227592000000000 -18.3760778390668911 H
atom 0.2327547058682867 -0.9681408000000000 -9.5817037338931286 H
atom 10.9911944437802127 -3.7628910000000002 -18.0034359893977012 H
atom 23.9220114364628209 -1.9098090000000001 -5.1348100945714590 H
atom 9.0257102608924562 -3.2674751999999998 -16.3417461254112837 H
atom 21.9565272535750573 -2.4052248000000001 -3.4731202305850468 H
atom 7.4222889537998142 -2.5300242000000002 -14.8179837363697402 H
atom 20.3531059464824189 -3.1426757999999997 -1.9493578415435007 H
atom 6.4654084963413023 -2.4884243999999995 -12.6507900525868813 H
atom 19.3962254890239052 -3.1842755999999999 0.2178358422393560 H
atom 5.4309431369266941 -0.2306898000000006 -11.8822511241729831 H
atom 18.3617601296092978 -1.6602101999999999 0.9863747706532580 H
atom 3.0775344442584593 -3.5775828000000001 -11.3431620370313571 H
atom 16.0083514369410658 -2.0951172000000002 1.5254638577948803 H
atom 2.4827168625950593 -2.4657336000000001 -9.2489068281933626 H
atom 15.4135338552776631 -3.2069664000000002 -18.0432809333671251 H
atom 3.1551193462145548 -1.6829009999999998 -6.9333502816623973 H
atom 16.0859363388971595 -0.2079990000000002 -15.7277243868361598 H
atom 4.7844022872925631 -1.6942463999999999 -5.1385994189142954 H
atom 17.7152192799751695 -0.1966536000000002 -13.9329735240880570 H
atom 7.0085028100339715 -2.2350438000000001 -4.3332907650041790 H
atom 19.9393198027165717 -3.4376562000000002 -13.1276648701779397 H
atom 9.3360498687168381 -2.8628225999999999 -4.7031501039354557 H
atom 22.2668668613994427 -2.8098774000000000 -13.4975242091092174 H
atom 11.0429177117509418 -0.0529452000000000 -6.2539414858183937 H
atom 23.9737347044335500 -1.8379547999999999 -15.0483155909921535 H
atom 11.7153201953704400 -0.7601417999999999 -8.4876149392874307 H
atom 24.6461371880530393 -1.1307582000000003 -17.2819890444611914 H
atom 12.1549679731216482 -1.5997014000000003 -10.2380446588633358 H
atom 25.0857849658042511 -0.2911985999999999 2.6305812359629019 H
atom 13.9394207181118492 -2.1442805999999996 -11.7766132853773158 H
atom 1.0086037254292426 -3.5284194000000002 -2.9822391802035542 H
atom 14.7928546396288976 -2.1896621999999999 -14.0684189763187835 H
atom 1.8620376469462945 -3.4830378000000004 -5.2740448711450245 H
atom 25.1349220703764473 -3.2372207999999998 -10.4006373856367578 C
atom 12.2041050776938409 -2.4354792000000001 -1.6062632804629962 C
atom 24.6151032272706054 -3.2757951599999999 -9.0939315466087738 C
atom 11.6842862345879990 -2.3969048399999999 -0.2995574414350122 C
atom 25.3909522468315636 -2.8272736800000002 -8.0120330929192001 C
atom 12.4601352541489554 -2.8454263200000001 0.7823410122545633 C
atom 0.8275722875316863 -2.3409342000000000 -12.3085185427311217 C
atom 13.7583892802142920 -3.3317657999999999 0.5601073520951153 C
atom 1.3551496208331366 -2.3016034800000003 -13.6096695062222128 C
atom 14.2859666135157415 -3.3710965200000000 -0.7410436113959735 C
atom 2.6353005031087147 -1.7558897400000002 -13.8390877426344137 C
atom 15.5661174957913193 -0.1350102600000002 -0.9704618478081755 C
atom 3.2197734311779684 -1.6568065800000003 -15.1182775521882675 C
atom 16.1505904238605744 -0.2340934199999998 -2.2496516573620298 C
atom 4.5076828036491543 -1.1545835400000002 -15.3854669130635742 C
atom 17.4384997963317616 -0.7363164600000000 -2.5168410182373364 C
atom 4.9861230323784111 -1.1114710200000002 -16.7008578549550037 C
atom 17.9169400250610167 -0.7794289799999998 -3.8322319601287638 C
atom 4.1844123788320902 -1.5751196999999999 -17.7673338604342312 C
atom 17.1152293715146975 -0.3157803000000001 -4.8987079656079926 C
atom 4.7766437970969537 -1.6053740999999999 -19.0864610944511917 C
atom 17.7074607897795566 -0.2855259000000001 -6.2178351996249477 C
atom 6.2248953002774039 -1.5494034599999997 -19.4627006942306480 C
atom 19.1557122929600112 -0.3414965400000002 -6.5940747994044120 C
atom 7.2153958819168942 -1.7876568600000000 -18.4921280506869614 C
atom 20.1462128745994988 -0.1032431400000000 -5.6235021558607228 C
atom 8.5602008491558852 -1.4945673600000000 -18.7698507576250329 C
atom 21.4910178418384881 -0.3963326400000005 -5.9012248627987924 C
atom 8.9222637249509944 -0.9620899199999998 -20.0169238325698942 C
atom 21.8530807176336026 -0.9288100800000002 -7.1482979377436573 C
atom 7.9421077969056553 -0.7351819200000000 0.6663017246022760 C
atom 20.8729247895882573 -1.1557180800000000 -8.1280723805714867 C
atom 8.3429631236788158 -0.3350674800000000 -0.6093207726581116 C
atom 21.2737801163614222 -1.5558325200000001 -9.4036948778318727 C
atom 7.4171166270027431 -0.1894681800000001 -1.5935370867276699 C
atom 20.3479336196853495 -1.7014318199999998 -10.3879111919014342 C
atom 6.0645531695681401 -0.5634882000000001 -1.4101875553264951 C
atom 18.9953701622507474 -1.3274118000000004 -10.2045616605002571 C
atom 5.0921557317184094 -0.5827753800000001 -2.4147353226174277 C
atom 18.0229727244010149 -1.3081246200000001 -11.2091094277911871 C
atom 3.8430388102252695 -1.1247073200000000 -2.2194213840576427 C
atom 16.7738558029078746 -0.7661926800000001 -11.0137954892314056 C
atom 3.4370111566550356 -1.5531852599999998 -0.9251170371551861 C
atom 16.3678281493376367 -0.3377147400000002 -9.7194911423289483 C
atom 2.1180678234014105 -1.9933867800000000 -0.7234731784274624 C
atom 15.0488848160840138 -3.6793132200000001 -9.5178472836012240 C
atom 1.6784200456502014 -2.3258070000000002 -21.0974653588515544 C
atom 14.6092370383328056 -3.3468930000000001 -8.2288394640253149 C
atom 2.5525432743555454 -2.2210511399999997 -19.9979184483613004 C
atom 15.4833602670381509 -3.4516488599999997 -7.1292925535350626 C
atom 2.0896200260175077 -2.4717844799999997 -18.6497547553960814 C
atom 15.0204370187001128 -3.2009155200000001 -5.7811288605698419 C
atom 0.8017106535463209 -2.9293822800000000 -18.3825653945207748 C
atom 13.7325276462289256 -2.7433177200000003 -5.5139394996945343 C
atom 0.3413735686068203 -3.1460794200000000 -17.0989832763765897 C
atom 13.2721905612894240 -2.5266205800000003 -4.2303573815503492 C
atom 24.8918227109140098 -3.6430079400000004 -12.7373796524594951 C
atom 11.9610057182314087 -2.0296920599999999 -3.9430055472857304 C
atom 24.3590730508154856 -3.6974658599999999 -11.4868684393263329 C
atom 11.4282560581328863 -1.9752341400000000 -2.6924943341525713 C
atom 0.5767144378736436 -2.7516376800000000 -14.6984742850907484 C
atom 13.5075314305562486 -2.9210623199999999 -1.8298483902645111 C
atom 1.1068779345736304 -2.6552017799999996 -15.9970515234028721 C
atom 14.0376949272562346 -3.0174982200000002 -3.1284256285766361 C
atom 2.4103042874360372 -2.1091098599999998 -16.1816432332043867 C
atom 15.3411212801186405 -3.5635901400000001 -3.3130173383781498 C
atom 2.8887445161652936 -2.0622155400000000 -17.5035330750958167 C
atom 15.8195615088478991 -3.6104844599999999 -4.6349071802695807 C
atom 3.8766589344062456 -1.7846314200000000 -20.1987474567310947 C
atom 16.8074759270888521 -0.1062685800000001 -7.3301215619048561 C
atom 4.3188928755559894 -1.4529675600000000 0.1713195488719625 C
atom 17.2497098682385968 -0.4379324400000000 -8.6230545563017991 C
atom 5.6404223722081506 -0.9575517600000000 -0.1079036846767954 C
atom 18.5712393648907543 -0.9333482400000001 -8.9022777898505581 C
atom 6.5921305028695922 -1.0312968600000003 0.9432095811824153 C
atom 19.5229474955521951 -0.8596031399999998 -7.8511645239913452 C
atom 13.0627113260079675 -1.3466989800000000 -15.0342024210465368 C
atom 0.1318943333253625 -0.5442010200000001 -6.2398283158727734 C
atom 13.5359792279401496 -1.3686334200000001 -16.3070822132958924 C
atom 0.6051622352575458 -0.5222665800000000 -7.5127081081221334 C
atom 12.7911641691616325 -0.8883448200000000 -17.3840915648378846 C
atom 25.7219811618442336 -1.0025551800000001 -4.5154656700116513 C
atom 11.5472195744655668 -0.3535983000000001 -17.1727986759201734 C
atom 24.4780365671481661 -1.5373017000000000 -4.3041727810939330 C
atom 10.9963667705772874 -0.3104857799999998 -15.8688156390397683 C
atom 23.9271837632598903 -1.5804142200000002 -3.0001897442135279 C
atom 9.6722511105265880 -3.6142662600000000 -15.5705031306699748 C
atom 22.6030681032091927 -2.0584337399999999 -2.7018772358437357 C
atom 9.2351894961739145 -3.5828773200000001 -14.2810878859151007 C
atom 22.1660064888565209 -2.0898226800000002 -1.4124619910888625 C
atom 7.9472801237027291 -2.9721166200000000 -14.0225637250397952 C
atom 20.8780971163853337 -2.7005833799999999 -1.1539378302135577 C
atom 7.4067719734085955 -2.9445094799999998 -12.7884388874435313 C
atom 20.3375889660912001 -2.7281905200000001 0.0801870073827077 C
atom 8.1050360910134547 -3.5004340799999998 -11.6342774891229137 C
atom 21.0358530836960611 -2.1722659200000001 1.2343484057033245 C
atom 7.6162512086900529 -3.5000559000000000 -10.3118510479473482 C
atom 20.5470682013726567 -2.1726440999999999 2.5567748468788918 C
atom 6.1938613394949664 -3.2739042600000001 -10.0355195963782329 C
atom 19.1246783321775737 -2.3987957399999997 2.8331062984480040 C
atom 5.1826714506671872 -3.5711537400000002 -10.9443626413536457 C
atom 18.1134884433497945 -2.1015462600000006 1.9242632534725919 C
atom 3.8430388102252699 -3.3098313600000000 -10.6376631840576419 C
atom 16.7738558029078746 -2.3628686400000003 2.2309627107685976 C
atom 3.4913205880243030 -2.7368886600000000 -9.4431179083969177 C
atom 16.4221375807069094 -2.9358113399999999 -18.2374920135706766 C
atom 4.4663041892725710 -2.4850207800000002 -8.4641583159270191 C
atom 17.3971211819551748 -3.1876792200000001 -17.2585324211007816 C
atom 4.1326891108613593 -2.0274229800000003 -7.1324504640135364 C
atom 17.0635061035439612 -3.6452770200000000 -15.9268245691872998 C
atom 5.0611217709359710 -2.0013285600000006 -6.1369952247650090 C
atom 17.9919387636185739 -3.6713714400000002 -14.9313693299387733 C
atom 6.4136852283705705 -2.4037120800000000 -6.3918326561661889 C
atom 19.3445022210531761 -3.2689879200000003 -15.1862067613399514 C
atom 7.3317732348510356 -2.4808608000000003 -5.3135214176335257 C
atom 20.2625902275336358 -3.1918392000000004 -14.1078955228072882 C
atom 8.6145102805251490 -2.8749243600000001 -5.5165366288667599 C
atom 21.5453272732077501 -2.7977756400000002 -14.3109107340405206 C
atom 9.0308825876895291 -3.3139913399999998 -6.8287079750533568 C
atom 21.9616995803721302 -2.3587086599999996 -15.6230820802271158 C
atom 10.3524120843416938 -0.0060508800000002 -7.0711041086021149 C
atom 23.2832290770242984 -1.8848491199999999 -15.8654782137758765 C
atom 10.7325781039265618 -0.3830963399999998 -8.3109926072942226 C
atom 23.6633950966091682 -1.5078036600000007 -17.1053667124679833 C
atom 9.8532825484241453 -0.2703987000000000 -9.4330173681424085 C
atom 22.7840995411067446 -1.6205012999999999 3.4356085266838314 C
atom 10.3162057967621816 -0.5249138400000002 -10.7790147611076286 C
atom 23.2470227894447881 -1.3659861599999998 2.0896111337186105 C
atom 11.5782535352480043 -1.1451290400000003 -11.0589435737725879 C
atom 24.5090705279306071 -0.7457709600000002 1.8096823210536521 C
atom 12.0644522541728687 -1.1753834399999998 -12.3666133401271221 C
atom 24.9952692468554751 -0.7155165600000002 0.5020125546991168 C
atom 13.3730509338323493 -1.7729078400000000 -12.6045476995707055 C
atom 0.4422339411497450 -0.1179921600000000 -3.8101735943969435 C
atom 13.8308018553733145 -1.8080785799999999 -13.8755394428938583 C
atom 0.8999848626907092 -0.0828214200000001 -5.0811653377200967 C
atom 11.7618711365440944 -0.7968252600000000 -14.7863805860660555 C
atom 24.6926881292267026 -1.0940747399999999 -1.9177546912398160 C
atom 11.2575692738294766 -0.7525781999999999 -13.4360704959642785 C
atom 24.1883862665120795 -1.1383218000000006 -0.5674446011380416 C
atom 9.9800045549524352 -0.2700205200000001 -13.1434221343731110 C
atom 22.9108215476350381 -1.6208794800000004 -0.2747962395468723 C
atom 9.4420825680568381 -0.1974099600000001 -11.8265704715978828 C
atom 22.3728995607394374 -1.6934900399999999 1.0420554232283563 C
atom 8.5162360713807619 -3.6172917000000000 -9.2212276856674418 C
atom 21.4470530640633648 -2.0554082999999999 -18.0156017908412061 C
atom 8.1076222544119929 -3.2610461400000004 -7.8861710639439506 C
atom 21.0384392470945976 -2.4116538599999999 -16.6805451691177140 C
atom 6.7783342675642206 -2.8461826799999996 -7.6753254059320861 C
atom 19.7091512602468271 -2.8265173200000002 -16.4696995111058477 C
atom 5.8317984636998537 -2.8008010799999998 -8.7624509214333699 C
atom 18.7626154563824556 -2.8718989200000000 -17.5568250266071288 C
