#=======================================================
# FHI-aims file: pahs_geometry_fix/HPHBNZ03.in
# Created using the Atomic Simulation Environment (ASE)
# Tue May 25 14:20:52 2021
#=======================================================
lattice_vector -0.0000000000000019 -11.7878000000000007 -0.0000000000000007 
lattice_vector -12.1286000000000005 0.0000000000000000 -0.0000000000000007 
lattice_vector 0.0000000000000000 0.0000000000000000 -20.5580999999999996 
atom -9.6543656000000020 -2.6157128200000002 -8.2499655300000008 H
atom -2.4742344000000025 -9.1720871800000001 -18.5290155299999988 H
atom -3.5900656000000013 -3.2781871799999989 -8.2499655300000008 H
atom -8.5385344000000032 -8.5096128200000010 -18.5290155299999988 H
atom -8.9593968200000020 -0.4514727399999987 -8.7865319399999997 H
atom -3.1692031800000029 -11.3363272600000009 -19.0655819400000013 H
atom -2.8950968200000013 -5.4424272600000005 -8.7865319399999997 H
atom -9.2335031800000031 -6.3453727400000002 -19.0655819400000013 H
atom -6.7447144600000026 -11.5944800800000003 -8.4164861399999999 H
atom -5.3838855399999996 -0.1933199199999997 -18.6955361399999980 H
atom -0.6804144600000015 -6.0872199199999999 -8.4164861399999999 H
atom -11.4481855400000008 -5.7005800800000008 -18.6955361400000015 H
atom -5.2310651800000008 -1.3296638400000003 -7.5283762199999993 H
atom -6.8975348200000015 -10.4581361600000005 -17.8074262200000000 H
atom -11.2953651800000010 -4.5642361600000001 -7.5283762200000002 H
atom -0.8332348200000024 -7.2235638400000006 -17.8074262200000000 H
atom -5.9102667800000015 -3.5045129399999988 -7.0123679099999991 H
atom -6.2183332200000008 -8.2832870600000010 -17.2914179099999998 H
atom -11.9745667800000000 -2.3893870600000002 -7.0123679100000000 H
atom -0.1540332200000034 -9.3984129400000000 -17.2914179099999998 H
atom -10.7313852800000014 -3.3300535000000000 -4.8907719900000011 H
atom -1.3972147200000011 -8.4577465000000007 -15.1698219900000009 H
atom -4.6670852800000011 -2.5638464999999990 -4.8907719900000002 H
atom -7.4615147200000029 -9.2239535000000004 -15.1698219900000009 H
atom -10.5421791200000001 -1.6644373600000000 -3.2646262800000017 H
atom -1.5864208800000019 -10.1233626399999999 -13.5436762800000015 H
atom -4.4778791200000017 -4.2294626400000004 -3.2646262800000039 H
atom -7.6507208800000015 -7.5583373600000003 -13.5436762800000015 H
atom -8.4681885200000000 -1.2129646199999986 -2.2881165299999973 H
atom -3.6604114800000027 -10.5748353800000015 -12.5671665299999997 H
atom -2.4038885200000015 -4.6809353800000002 -2.2881165299999973 H
atom -9.7247114800000016 -7.1068646200000005 -12.5671665299999997 H
atom -6.5979584000000013 -2.4330019200000006 -2.9151385800000011 H
atom -5.5306416000000027 -9.3547980800000001 -13.1941885799999987 H
atom -0.5336584000000011 -3.4608980799999984 -2.9151385800000011 H
atom -11.5949416000000021 -8.3269019199999992 -13.1941885799999987 H
atom -6.7847388400000028 -4.1304451200000010 -4.5042797099999996 H
atom -5.3438611600000012 -7.6573548799999998 -14.7833297100000021 H
atom -0.7204388400000005 -1.7634548799999983 -4.5042797099999996 H
atom -11.4081611600000024 -10.0243451200000013 -14.7833297100000021 H
atom -8.3177938800000017 -7.2707150400000007 -3.4599282300000009 H
atom -3.8108061200000014 -4.5170849600000000 -13.7389782300000007 H
atom -2.2534938800000015 -10.4109849600000004 -3.4599282300000009 H
atom -9.8751061200000017 -1.3768150400000003 -13.7389782300000007 H
atom -9.2965719000000018 -7.8730716200000002 -1.4246763300000016 H
atom -2.8320281000000014 -3.9147283799999997 -11.7037263299999985 H
atom -3.2322719000000011 -9.8086283800000018 -1.4246763300000014 H
atom -8.8963281000000016 -1.9791716199999994 -11.7037263299999985 H
atom -11.5464272000000019 -7.4699288599999996 -1.0402398600000007 H
atom -0.5821728000000013 -4.3178711399999985 -11.3192898599999996 H
atom -5.4821272000000016 -10.2117711399999997 -1.0402398600000005 H
atom -6.6464727999999997 -1.5760288600000005 -11.3192898599999996 H
atom -0.6937559200000041 -6.4502841600000007 -2.6725530000000028 H
atom -11.4348440800000013 -5.3375158400000000 -12.9516030000000004 H
atom -6.7580559200000021 -11.2314158400000004 -2.6725530000000011 H
atom -5.3705440800000002 -0.5563841600000002 -12.9516030000000004 H
atom -11.8738994000000009 -5.8632517200000001 -4.7365862400000021 H
atom -0.2547006000000012 -5.9245482799999998 -15.0156362399999992 H
atom -5.8095993999999997 -0.0306482800000006 -4.7365862400000012 H
atom -6.3190006000000034 -11.7571517199999995 -15.0156362399999992 H
atom -8.0788604600000031 -9.3866251400000014 -5.9371792799999996 H
atom -4.0497395400000000 -2.4011748599999989 -16.2162292800000003 H
atom -2.0145604600000016 -8.2950748599999997 -5.9371792799999996 H
atom -10.1140395400000003 -3.4927251400000001 -16.2162292800000003 H
atom -8.8065764600000023 -11.5449713200000019 -5.4273384000000018 H
atom -3.3220235400000004 -0.2428286799999981 -15.7063883999999998 H
atom -2.7422764600000007 -6.1367286800000000 -5.4273384000000009 H
atom -9.3863235400000011 -5.6510713200000007 -15.7063884000000016 H
atom -11.0770503800000011 -0.2758345199999997 -5.5547986200000006 H
atom -1.0515496200000019 -11.5119654800000006 -15.8338486199999995 H
atom -5.0127503800000008 -5.6180654799999994 -5.5547986200000006 H
atom -7.1158496200000014 -6.1697345200000004 -15.8338486200000013 H
atom -0.4839311400000036 -10.4050910600000019 -6.1036998900000015 H
atom -11.6446688599999995 -1.3827089399999983 -16.3827498899999995 H
atom -6.5482311400000022 -7.2766089400000000 -6.1036998900000015 H
atom -5.5803688600000019 -4.5111910600000007 -16.3827498899999995 H
atom -11.8896665800000019 -8.2373146399999992 -6.5683129500000010 H
atom -0.2389334200000012 -3.5504853599999993 -16.8473629500000008 H
atom -5.8253665800000007 -9.4443853600000001 -6.5683129500000010 H
atom -6.3032334200000015 -2.3434146399999998 -16.8473629500000008 H
atom -10.8951213800000009 -8.1559788199999996 -9.1730242200000021 H
atom -1.2334786200000007 -3.6318211800000006 -19.4520742200000001 H
atom -4.8308213800000015 -9.5257211800000015 -9.1730242200000021 H
atom -7.2977786200000008 -2.2620788199999984 -19.4520742200000001 H
atom -10.8939085200000019 -9.8616734800000003 -10.7559979200000040 H
atom -1.2346914800000004 -1.9261265200000000 -0.4769479199999979 H
atom -4.8296085199999998 -7.8200265200000008 -10.7559979200000004 H
atom -7.2989914800000024 -3.9677734799999991 -0.4769479200000029 H
atom -8.8866252200000027 -10.7410433600000008 -11.5433731499999990 H
atom -3.2419747800000001 -1.0467566399999986 -1.2643231500000003 H
atom -2.8223252200000029 -6.9406566400000003 -11.5433731500000007 H
atom -9.3062747800000007 -4.8471433600000005 -1.2643231500000007 H
atom -6.8611490200000018 -9.9241488200000010 -10.7169375300000009 H
atom -5.2674509800000004 -1.8636511799999991 -0.4378875299999979 H
atom -0.7968490200000024 -7.7575511800000010 -10.7169375299999992 H
atom -11.3317509800000007 -4.0302488199999988 -0.4378875299999984 H
atom -6.8453818400000017 -8.2243480600000005 -9.1154615400000019 H
atom -5.2832181600000006 -3.5634519399999989 -19.3945115399999999 H
atom -0.7810818400000030 -9.4573519400000006 -9.1154615400000001 H
atom -11.3475181599999999 -2.3304480600000002 -19.3945115399999999 H
atom -9.5779554200000021 -5.1512686000000008 -10.5257472000000014 H
atom -2.5506445800000028 -6.6365314000000000 -0.2466972000000008 H
atom -3.5136554199999996 -0.7426313999999981 -10.5257471999999996 H
atom -8.6149445800000031 -11.0451686000000020 -0.2466972000000014 H
atom -8.7095476600000001 -4.7021534200000010 -12.6411756900000007 H
atom -3.4190523400000030 -7.0856465799999997 -2.3621256900000005 H
atom -2.6452476599999999 -1.1917465799999998 -12.6411756900000007 H
atom -9.4833523400000033 -10.5960534200000005 -2.3621256900000014 H
atom -6.4075393800000011 -4.6644324600000013 -12.9844959599999985 H
atom -5.7210606200000029 -7.1233675399999994 -2.7054459599999996 H
atom -0.3432393800000001 -1.2294675399999995 -12.9844959599999985 H
atom -11.7853606200000023 -10.5583324600000008 -2.7054459600000023 H
atom -4.9775774400000019 -5.0640388800000000 -11.2021086899999993 H
atom -7.1510225600000012 -6.7237611200000007 -0.9230586900000018 H
atom -11.0418774400000004 -0.8298611200000002 -11.2021086899999993 H
atom -1.0867225600000019 -10.9579388800000004 -0.9230586900000017 H
atom -5.8290051600000012 -5.4860421199999996 -9.0764011500000006 H
atom -6.2995948400000019 -6.3017578800000003 -19.3554511500000004 H
atom -11.8933051600000006 -0.4078578799999996 -9.0764011500000006 H
atom -0.2352948400000029 -11.3799421200000008 -19.3554511500000004 H
atom -8.3341674900000005 -4.6738626999999999 -7.2183600720000003 C
atom -3.7944325100000036 -7.1139372999999999 -17.4974100720000010 C
atom -2.2698674900000020 -1.2200373000000004 -7.2183600719999994 C
atom -9.8587325100000029 -10.5677626999999994 -17.4974100720000010 C
atom -8.8486627020000022 -4.9456893680000009 -5.9402629950000012 C
atom -3.2799372980000032 -6.8421106320000016 -16.2193129950000028 C
atom -2.7843627020000010 -0.9482106319999996 -5.9402629950000012 C
atom -9.3442372980000012 -10.8395893680000004 -16.2193129950000028 C
atom -9.4094891660000020 -6.2095772840000008 -5.6625230640000010 C
atom -2.7191108340000012 -5.5782227160000000 -15.9415730639999982 C
atom -3.3451891660000035 -11.4721227160000012 -5.6625230640000010 C
atom -8.7834108340000014 -0.3156772839999990 -15.9415730639999982 C
atom -9.4080337340000018 -7.2081218219999990 -6.6501341880000009 C
atom -2.7205662660000010 -4.5796781780000009 -16.9291841880000007 C
atom -3.3437337340000028 -10.4735781780000003 -6.6501341880000009 C
atom -8.7848662659999999 -1.3142218219999999 -16.9291841880000007 C
atom -8.8736476180000015 -6.9421890540000000 -7.9265866169999999 C
atom -3.2549523820000021 -4.8456109460000008 -18.2056366169999997 C
atom -2.8093476180000034 -10.7395109460000011 -7.9265866169999999 C
atom -9.3192523820000002 -1.0482890539999996 -18.2056366169999997 C
atom -8.3447193720000019 -5.6674563620000011 -8.2139888550000002 C
atom -3.7838806280000017 -6.1203436379999996 -18.4930388549999982 C
atom -2.2804193719999999 -0.2264436379999981 -8.2139888549999984 C
atom -9.8481806280000033 -11.5613563620000015 -18.4930388550000018 C
atom -7.8539962160000014 -3.2867922739999993 -7.5627082470000015 C
atom -4.2746037840000009 -8.5010077259999992 -17.8417582470000013 C
atom -1.7896962160000021 -2.6071077259999997 -7.5627082470000007 C
atom -10.3389037840000011 -9.1806922740000001 -17.8417582470000013 C
atom -8.7511487580000011 -2.3610963400000005 -8.1003025620000013 C
atom -3.3774512420000016 -9.4267036599999994 -18.3793525620000011 C
atom -2.6868487580000009 -3.5328036599999986 -8.1003025620000013 C
atom -9.4417512420000023 -8.2549963399999999 -18.3793525620000011 C
atom -8.3384125000000004 -1.0703322399999999 -8.4193642740000012 C
atom -3.7901875000000018 -10.7174677599999999 -18.6984142740000010 C
atom -2.2741125000000006 -4.8235677600000004 -8.4193642740000012 C
atom -9.8544875000000012 -6.9642322400000003 -18.6984142740000010 C
atom -7.0260979800000012 -0.6889969100000001 -8.2032986430000001 C
atom -5.1025020200000029 -11.0988030900000005 -18.4823486430000017 C
atom -0.9617979800000013 -5.2049030900000002 -8.2032986430000001 C
atom -11.1668020200000004 -6.5828969100000005 -18.4823486430000017 C
atom -6.1322201600000010 -1.5901742199999991 -7.6788615119999992 C
atom -5.9963798400000012 -10.1976257800000010 -17.9579115119999990 C
atom -0.0679201600000013 -4.3037257799999988 -7.6788615119999992 C
atom -12.0606798400000006 -7.4840742200000010 -17.9579115119999990 C
atom -6.5399836920000007 -2.8871858540000002 -7.3657616490000004 C
atom -5.5886163080000015 -8.9006141460000006 -17.6448116490000011 C
atom -0.4756836920000009 -3.0067141459999993 -7.3657616490000004 C
atom -11.6529163080000018 -8.7810858540000005 -17.6448116490000011 C
atom -8.7699480880000014 -3.8979897039999987 -4.8747366720000009 C
atom -3.3586519120000022 -7.8898102960000012 -15.1537866720000007 C
atom -2.7056480880000011 -1.9959102959999990 -4.8747366720000000 C
atom -9.4229519120000020 -9.7918897040000008 -15.1537866720000007 C
atom -9.8872347200000021 -3.1550046699999994 -4.4905057830000006 C
atom -2.2413652800000023 -8.6327953300000004 -14.7695557830000013 C
atom -3.8229347200000010 -2.7388953299999996 -4.4905057830000006 C
atom -8.3056652800000030 -9.0489046700000006 -14.7695557830000013 C
atom -9.7768644600000005 -2.1618825200000003 -3.5261253119999987 C
atom -2.3517355400000026 -9.6259174800000000 -13.8051753120000011 C
atom -3.7125644600000012 -3.7320174799999988 -3.5261253119999982 C
atom -8.4160355400000029 -8.0557825200000011 -13.8051753120000011 C
atom -8.5458115599999989 -1.8966570200000006 -2.9439199200000004 C
atom -3.5827884400000016 -9.8911429799999997 -13.2229699200000006 C
atom -2.4815115600000008 -3.9972429799999984 -2.9439199200000004 C
atom -9.6470884400000028 -7.7905570200000014 -13.2229699200000006 C
atom -7.4396832399999999 -2.6192491599999981 -3.3121154910000024 C
atom -4.6889167600000023 -9.1685508400000000 -13.5911654909999999 C
atom -1.3753832399999999 -3.2746508400000010 -3.3121154909999975 C
atom -10.7532167600000026 -8.5131491599999993 -13.5911654909999999 C
atom -7.5524792200000013 -3.6235697200000003 -4.2656001689999998 C
atom -4.5761207800000010 -8.1642302800000000 -14.5446501689999987 C
atom -1.4881792200000021 -2.2703302799999987 -4.2656001689999989 C
atom -10.6404207800000012 -9.5174697200000011 -14.5446501690000005 C
atom -10.0000307000000017 -6.5193606679999991 -4.3178177430000000 C
atom -2.1285693000000023 -5.2684393320000007 -14.5968677429999989 C
atom -3.9357307000000032 -11.1623393320000002 -4.3178177430000000 C
atom -8.1928692999999999 -0.6254606680000000 -14.5968677429999989 C
atom -9.2419932000000014 -7.1080434000000006 -3.3156103679999984 C
atom -2.8866067999999996 -4.6797565999999993 -13.5946603679999996 C
atom -3.1776932000000020 -10.5736566000000014 -3.3156103680000002 C
atom -8.9509068000000003 -1.2141433999999984 -13.5946603679999996 C
atom -9.8253788600000025 -7.4628561800000002 -2.0983652669999988 C
atom -2.3032211400000002 -4.3249438200000005 -12.3774152669999999 C
atom -3.7610788600000036 -10.2188438200000000 -2.0983652670000006 C
atom -8.3675211400000009 -1.5689561800000000 -12.3774152669999982 C
atom -11.1522477000000020 -7.2223850600000006 -1.8693480330000001 C
atom -0.9763523000000009 -4.5654149400000001 -12.1483980329999994 C
atom -5.0879477000000017 -10.4593149400000005 -1.8693480330000001 C
atom -7.0406523000000005 -1.3284850599999991 -12.1483980329999994 C
atom -11.9030080400000013 -6.6282799400000005 -2.8349619900000014 C
atom -0.2255919600000002 -5.1595200600000002 -13.1140119899999998 C
atom -5.8387080400000029 -11.0534200600000005 -2.8349619900000014 C
atom -6.2898919600000012 -0.7343799399999990 -13.1140119899999998 C
atom -11.3366024200000020 -6.2734671600000000 -4.0690647330000020 C
atom -0.7919975800000012 -5.5143328400000007 -14.3481147329999992 C
atom -5.2723024200000017 -11.4082328400000002 -4.0690647330000020 C
atom -6.8562975800000023 -0.3795671600000001 -14.3481147329999992 C
atom -9.9045786180000022 -8.5908307620000013 -6.3177097110000000 C
atom -2.2240213820000010 -3.1969692379999981 -16.5967597110000007 C
atom -3.8402786180000010 -9.0908692379999998 -6.3177097110000000 C
atom -8.2883213820000012 -2.6969307620000009 -16.5967597110000007 C
atom -9.0066983600000032 -9.5881965200000003 -5.9721280500000002 C
atom -3.1219016399999999 -2.1996034799999999 -16.2511780500000000 C
atom -2.9423983600000021 -8.0935034800000007 -5.9721280500000002 C
atom -9.1862016400000002 -3.6942965199999991 -16.2511780500000000 C
atom -9.4360508000000021 -10.8766030600000008 -5.6744467620000023 C
atom -2.6925491999999998 -0.9111969399999992 -15.9534967620000003 C
atom -3.3717508000000040 -6.8050969399999994 -5.6744467620000014 C
atom -8.7568492000000013 -4.9827030599999986 -15.9534967619999986 C
atom -10.7786868200000026 -11.1795495200000001 -5.7385880340000019 C
atom -1.3499131799999995 -0.6082504799999998 -16.0176380339999973 C
atom -4.7143868200000032 -6.5021504799999992 -5.7385880340000019 C
atom -7.4142131800000035 -5.2856495200000007 -16.0176380340000009 C
atom -11.6859061000000022 -10.1988045600000010 -6.0683399580000010 C
atom -0.4426939000000000 -1.5889954399999993 -16.3473899580000008 C
atom -5.6216061000000019 -7.4828954399999992 -6.0683399580000010 C
atom -6.5069939000000021 -4.3049045599999998 -16.3473899580000008 C
atom -11.2541279400000018 -8.9092192400000005 -6.3501915090000010 C
atom -0.8744720600000011 -2.8785807599999997 -16.6292415089999999 C
atom -5.1898279400000007 -8.7724807600000005 -6.3501915090000010 C
atom -6.9387720600000016 -3.0153192399999993 -16.6292415089999999 C
atom -8.8690387500000032 -8.0167649020000002 -8.9715548400000014 C
atom -3.2595612500000013 -3.7710350980000005 -19.2506048400000012 C
atom -2.8047387500000025 -9.6649350979999991 -8.9715548400000014 C
atom -9.3238612500000020 -2.1228649019999999 -19.2506048400000012 C
atom -10.0691637200000024 -8.5140921840000008 -9.4785175860000006 C
atom -2.0594362799999999 -3.2737078159999999 -19.7575675860000004 C
atom -4.0048637200000039 -9.1676078160000003 -9.4785175860000006 C
atom -8.1237362800000010 -2.6201921839999991 -19.7575675860000004 C
atom -10.0691637200000024 -9.5257211800000015 -10.4252180909999996 C
atom -2.0594362799999999 -2.2620788199999984 -0.1461680909999969 C
atom -4.0048637200000030 -8.1559788199999996 -10.4252180909999996 C
atom -8.1237362800000010 -3.6318211800000006 -0.1461680910000020 C
atom -8.8805609200000006 -10.0502782800000006 -10.8908590560000018 C
atom -3.2480390800000007 -1.7375217199999997 -0.6118090560000005 C
atom -2.8162609200000008 -7.6314217200000005 -10.8908590560000000 C
atom -9.3123390800000010 -4.1563782799999993 -0.6118090559999987 C
atom -7.6822552400000044 -9.5657997000000012 -10.4007539519999987 C
atom -4.4463447600000006 -2.2220002999999990 -0.1217039520000012 C
atom -1.6179552400000010 -8.1159002999999998 -10.4007539519999987 C
atom -10.5106447600000017 -3.6718997000000004 -0.1217039520000016 C
atom -7.6736439340000011 -8.5533455580000002 -9.4468581120000010 C
atom -4.4549560660000012 -3.2344544420000005 -19.7259081120000026 C
atom -1.6093439340000026 -9.1283544419999991 -9.4468581120000010 C
atom -10.5192560660000005 -2.6594455579999985 -19.7259081120000026 C
atom -7.7974769400000028 -5.3656886820000000 -9.5765797230000000 C
atom -4.3311230600000012 -6.4221113180000007 -19.8556297229999998 C
atom -1.7331769400000006 -0.5282113180000002 -9.5765797230000000 C
atom -10.3954230600000024 -11.2595886820000004 -19.8556297229999998 C
atom -8.6367760600000025 -5.1312293400000009 -10.6517683529999996 C
atom -3.4918239400000046 -6.6565706599999999 -0.3727183530000002 C
atom -2.5724760599999996 -0.7626706599999985 -10.6517683529999996 C
atom -9.5561239400000026 -11.0251293400000012 -0.3727183530000008 C
atom -8.1200977000000023 -4.8671826200000012 -11.9152691790000009 C
atom -4.0085023000000026 -6.9206173799999995 -1.6362191790000016 C
atom -2.0557976999999998 -1.0267173799999982 -11.9152691790000009 C
atom -10.0728023000000029 -10.7610826200000016 -1.6362191790000022 C
atom -6.7592687800000029 -4.8424282400000012 -12.1196166930000011 C
atom -5.3693312200000021 -6.9453717599999996 -1.8405666930000006 C
atom -0.6949687800000004 -1.0514717599999994 -12.1196166929999976 C
atom -11.4336312200000023 -10.7363282400000006 -1.8405666930000013 C
atom -5.9175439400000007 -5.0770054599999987 -11.0664252300000001 C
atom -6.2110560600000015 -6.7107945399999993 -0.7873752300000008 C
atom -11.9818439400000010 -0.8168945399999991 -11.0664252300000001 C
atom -0.1467560600000018 -10.9709054600000009 -0.7873752300000006 C
atom -6.4257322800000019 -5.3328007200000007 -9.7992239459999997 C
atom -5.7028677200000022 -6.4549992799999991 -20.0782739459999995 C
atom -0.3614322800000007 -0.5610992799999998 -9.7992239459999997 C
atom -11.7671677200000016 -11.2267007200000002 -20.0782739459999995 C
