#=======================================================
# FHI-aims file: pahs_geometry_fix/VEBKAP.in
# Created using the Atomic Simulation Environment (ASE)
# Tue May 25 14:20:53 2021
#=======================================================
lattice_vector 10.8901185556420401 0.0000000000000000 -2.7160190599590615 
lattice_vector -2.6874046246111423 12.7473693968132320 -1.9921021170633040 
lattice_vector 0.0000000000000000 0.0000000000000000 13.4072999999999993 
atom 5.2833681623951891 2.7763770546259217 5.7607072474916743 H
atom 2.9193457686357096 9.9709923421873103 2.9384715754859605 H
atom 4.8550827740939804 2.3697359708675800 7.9541612946560614 H
atom 3.3476311569369170 10.3776334259456533 0.7450175283215736 H
atom 4.7327843794287414 4.1275982106881246 9.5119766681459641 H
atom 3.4699295516021564 8.6197711861251083 -0.8127978451683306 H
atom 5.0880315970218426 6.2857278495686044 8.8492948016661934 H
atom 3.1146823340090553 6.4616415472446276 -0.1501159786885591 H
atom 5.6576826018728248 7.9020942890845225 7.0570623898099889 H
atom 2.5450313291580731 4.8452751077287095 1.6421164331676454 H
atom 6.6371545592635917 11.1284534834179514 3.3770362392435049 H
atom 1.5655593717673062 1.6189159133952804 5.3221425837341281 H
atom 6.9911390666957010 12.7295230796576941 1.5184391730329541 H
atom 1.2115748643351962 0.0178463171555385 7.1807396499446794 H
atom 9.9970654726413688 0.3722231863869464 1.2849092639076278 H
atom -1.7943515416104723 12.3751462104262853 7.4142695590700063 H
atom 7.3706074882813715 11.3273124460082375 -2.2384964408517671 H
atom 0.8321064427495268 1.4200569508049941 10.9376752638294015 H
atom 7.0230395537000980 9.1895785981626581 -1.5404269287252510 H
atom 1.1796743773307996 3.5577907986505735 10.2396057517028858 H
atom 6.6053548777203410 7.5910584758022797 0.3174358676096493 H
atom 1.5973590533105555 5.1563109210109523 8.3817429553679847 H
atom 6.1868920803646423 6.0065604597783953 2.1430680878037891 H
atom 2.0158218506662555 6.7408089370348376 6.5561107351738439 H
atom 5.7515144742333986 4.4093150743576963 3.9460851844229179 H
atom 2.4511994567975006 8.3380543224555357 4.7530936385547156 H
atom 4.2181486104004424 10.3240944744790362 5.6352051833824683 H
atom 3.9845653206304563 2.4232749223341954 3.0639736395951647 H
atom 4.2704890934932012 12.0284177628329658 7.1995282698646523 H
atom 3.9322248375376967 0.7189516339802663 1.4996505531129816 H
atom 6.2651932399135424 12.6861820237085290 8.1413661467782052 H
atom 1.9375206911173559 0.0611873731047035 0.5578126761994282 H
atom 8.2359133615029521 11.6549198395063378 7.5005695793952176 H
atom -0.0331994304720539 1.0924495573068940 1.1986092435824158 H
atom 8.2006861776196001 9.9365744448159141 5.9335662504638575 H
atom 0.0020277534112985 2.8107949519973179 2.7656125725137763 H
atom 8.1244521592652887 3.9083434570629367 7.6647696393400286 H
atom 0.0782617717656095 8.8390259397502948 1.0344091836376041 H
atom 8.8203046981377291 3.0096539145876040 9.6404059423048967 H
atom -0.6175907671068308 9.7377154822256280 -0.9412271193272621 H
atom -0.2323420298662327 3.9121676678819810 0.1002803534114991 H
atom 8.4350559608971309 8.8352017289312510 8.5988984695661337 H
atom 0.8812878911400769 5.7324920177469103 -0.7198727796495117 H
atom 7.3214260398908211 7.0148773790663217 9.4190516026271442 H
atom 1.1710048587343933 7.4266174105833889 10.9058672868312065 H
atom 7.0317090722965059 5.3207519862298431 -2.2066884638535726 H
atom 1.7592791291728029 10.7626039817294128 7.2267703522845936 H
atom 6.4434348018580945 1.9847654150838203 1.4724084706930387 H
atom 2.0903522376209054 12.3483767346929785 5.3422232743584219 H
atom 6.1123616934099916 0.3989926621202542 3.3569555486192129 H
atom 4.2047115532891937 0.3097610763425615 5.2470639651454132 H
atom 3.9980023777417046 12.4376083204706713 3.4521148578322203 H
atom -0.1552111471487787 11.9455598617536811 2.0218631700888614 H
atom 8.3579250781796759 0.8018095350595522 6.6773156528887734 H
atom -1.2556886258539992 10.1558291984411007 2.9154716837609937 H
atom 9.4584025568848968 2.5915401983721300 5.7837071392166415 H
atom -1.6310019798605755 8.6197711861251083 4.8207801725164936 H
atom 9.8337159108914740 4.1275982106881246 3.8783986504611399 H
atom 8.8601699014378141 7.1028342279043333 3.9851556824452632 H
atom -0.6574559704069182 5.6445351689088996 4.7140231405323707 H
atom 8.4728352670028730 5.5514793723121629 5.8363242704251821 H
atom -0.2701213359719762 7.1958900245010691 2.8628545525524518 H
atom 0.6803511707768576 10.7664281925484566 10.3119323385854234 H
atom 7.5223627602540395 1.9809412042647765 -1.6127535156077892 H
atom 2.3725276600267220 11.8983945949854704 -2.0014823987405395 H
atom 5.8301862710041750 0.8489748018277613 10.7006612217181729 H
atom 4.5558245224813101 11.2431798079892715 -2.2160916093837972 H
atom 3.6468894085495878 1.5041895888239614 10.9152704323614316 H
atom 5.0755279443931638 9.4547238816163741 9.8316073879547190 H
atom 3.1271859866377336 3.2926455151968574 -1.1324285649770862 H
atom 3.3971977187860141 8.3087353728428646 8.7077013585494925 H
atom 4.8055162122448838 4.4386340239703674 -0.0085225355718596 H
atom 5.2503622485906716 3.4944363727484111 6.3669622750557435 C
atom 2.9523516824402263 9.2529330240648218 2.3322165479218913 C
atom 4.9922284066185032 3.2533836174546731 7.6668917068204481 C
atom 3.2104855244123942 9.4939857793585585 1.0322871161571852 C
atom 4.9243919112427843 4.3138372775755656 8.6105308311445388 C
atom 3.2783220197881131 8.4335321192376664 0.0886479918330965 C
atom 5.1342324612153654 5.5939281124035505 8.2148239059578430 C
atom 3.0684814698155325 7.1534412844096806 0.4843549170197899 C
atom 5.4242955773170651 5.9118475051600727 6.8490465181822273 C
atom 2.7784183537138327 6.8355218916531593 1.8501323047954061 C
atom 5.6659774234892808 7.2072351832642330 6.4239695610819902 C
atom 2.5367365075416166 5.5401342135489990 2.2752092618956445 C
atom 5.9245753010034150 7.5178885754645712 5.0699705232647752 C
atom 2.2781386300274833 5.2294808213486599 3.6292082997128583 C
atom 6.1690386868385634 8.8346918341553788 4.6239064878376990 C
atom 2.0336752441923354 3.9126775626578532 4.0752723351399354 C
atom 6.3905966483639283 9.1107998552903542 3.2567301113317590 C
atom 1.8121172826669685 3.6365695415228787 5.4424487116458744 C
atom 6.6130764027931583 10.4130711128687938 2.7676998841560403 C
atom 1.5896375282377400 2.3342982839444391 5.9314789388215932 C
atom 6.7978528166820800 10.6792361858742524 1.4210245723454642 C
atom 1.4048611143488188 2.0681332109389787 7.2781542506321690 C
atom 6.9962225429446656 12.0054724979187011 0.9194608535445956 C
atom 1.2064913880862329 0.7418968988945301 7.7797179694330394 C
atom 7.1904640620791263 12.2386218841864167 -0.4009597721665779 C
atom 1.0122498689517712 0.5087475126268161 9.1001385951442124 C
atom 7.2149512186712874 11.1559878013150691 -1.3272779727525570 C
atom 0.9877627123596092 1.5913815954981640 10.0264567957301907 C
atom 7.0168491586588937 9.8873695989442147 -0.9107505292491672 C
atom 1.1858647723720055 2.8599997978690168 9.6099293522267999 C
atom 6.7970680522576696 9.5842371546879956 0.4738275136065320 C
atom 1.4056458787732278 3.1631322421252355 8.2253513093711010 C
atom 6.5990878965067354 8.3005770564289030 0.9340902419448447 C
atom 1.6036260345241626 4.4467923403843272 7.7650885810327894 C
atom 6.3866240655109934 8.0149085082463198 2.2999226986496089 C
atom 1.8160898655199038 4.7324608885669130 6.3992561243280255 C
atom 6.1745492918044054 6.7144218823834345 2.7602431566595782 C
atom 2.0281646392264920 6.0329475144297984 5.9389356663180557 C
atom 5.9446682961224973 6.4313028080802113 4.1065583204838658 C
atom 2.2580456349084006 6.3160665887330198 4.5926205024937676 C
atom 5.7259649581734440 5.1162841811049589 4.5652656008706511 C
atom 2.4767489728574534 7.6310852157082723 4.1339132221069814 C
atom 5.4759302181607392 4.8306156329223739 5.8912635323322737 C
atom 2.7267837128701600 7.9167537638908581 2.8079152906453593 C
atom 6.2036701078563032 9.9514888670101858 5.6227326906747974 C
atom 1.9990438231745951 2.7958805298030462 3.0764461323028356 C
atom 5.0389801400741652 10.5868177577473563 6.0108549391854886 C
atom 3.1637337909567336 2.1605516390658748 2.6883238837921457 C
atom 5.0699079011356298 11.6044402566949589 6.9455111795688476 C
atom 3.1328060298952694 1.1429291401182744 1.7536676434087868 C
atom 6.2502552209208533 11.9976966025866449 7.5021446983021933 C
atom 1.9524587101100463 0.7496727942265862 1.1970341246754410 C
atom 7.4190010485440672 11.3818711870265989 7.1232833302574265 C
atom 0.7837128824868312 1.3654982097866335 1.5758954927202071 C
atom 7.3977175439422993 10.3567277401348772 6.1859155540187647 C
atom 0.8049963870885996 2.3906416566783535 2.5132632689588683 C
atom 8.8701300665119120 4.2754676956911579 8.1047969708169010 C
atom -0.6674161354810146 8.4719017011220732 0.5943818521607334 C
atom 9.2767045691547239 3.7488738659088034 9.2803493439854972 C
atom -1.0739906381238262 8.9984955309044299 -0.5811705210078628 C
atom -0.5056584939440788 4.2968832762778044 -0.7125875080731940 C
atom 8.7083724249749785 8.4504861205354267 9.4117663310508277 C
atom 0.1635564854941080 5.3702117794894786 12.2004030363696412 C
atom 8.0391574455367891 7.3771576173237534 -3.5012242133920077 C
atom -0.2069671789395118 5.9577380349886004 10.9512472385022654 C
atom 8.4096811099704105 6.7896313618246324 -2.2520684155246329 C
atom 0.4586508933034119 7.0496776975196216 10.4217703132823907 C
atom 7.7440630377274857 5.6976916992936104 -1.7225914903047572 C
atom 0.1026383186657992 7.6174455304536837 9.1737924205895034 C
atom 8.1000756123650977 5.1299238663595492 -0.4746135976118699 C
atom 0.7718638219670478 8.7341150896145212 8.6257820528239595 C
atom 7.4308501090638508 4.0132543071987099 0.0733967701536747 C
atom 0.4245068113627695 9.2220843901245324 7.3457884026788571 C
atom 7.7782071196681279 3.5252850066886996 1.3533904202987772 C
atom 1.0811919973535442 10.3228197375393549 6.7463140143871820 C
atom 7.1215219336773528 2.4245496592738767 1.9528648085904527 C
atom 0.7622701523255820 10.7756062985141607 5.4791795112994528 C
atom 7.4404437787053164 1.9717630982990708 3.2199993116781807 C
atom 1.4145183106846042 11.8963550158819800 4.8705985580651880 C
atom 6.7881956203462934 0.8510143809312514 3.8285802649124467 C
atom 1.0772648945390484 12.3162533638130096 3.6305913836585875 C
atom 7.1254490364918492 0.4311160330002236 5.0685874393190478 C
atom 0.0633518783214549 11.6485461548079314 2.8859781534778226 C
atom 8.1393620527094441 1.0988232420053006 5.8132006694998122 C
atom -0.5881901990440083 10.5864353366654527 3.4183174661016462 C
atom 8.7909041300749049 2.1609340601477793 5.2808613568759881 C
atom -0.2792754859765249 10.1082815105909880 4.7287751842768735 C
atom 8.4819894170074228 2.6390878862222431 3.9704036387007617 C
atom -0.9473478845020340 9.0445135344269243 5.3063414917188512 C
atom 9.1500618155329327 3.7028558623863077 3.3928373312587827 C
atom -0.6382961702375547 8.5765576038699116 6.5949264331978368 C
atom 8.8410101012684539 4.1708117929433213 2.1042523897797980 C
atom -1.3246072308075274 7.5037389954341087 7.1751777244038530 C
atom 9.5273211618384259 5.2436304013791233 1.5240010985737813 C
atom -0.9924793471389057 7.0120729577990231 8.4350722001810450 C
atom 9.1951932781698016 5.7352964390142089 0.2641066227965902 C
atom 9.2026248411628373 5.9226827691473636 6.2980983825273356 C
atom -0.9999109101319390 6.8246866276658675 2.4010804404502979 C
atom 9.5633888327720236 5.3897152546666032 7.5184506162840865 C
atom -1.3606749017411259 7.3576541421466288 1.1807282066935476 C
atom 1.8594728986881905 9.4205609316329149 9.3853739709951327 C
atom 6.3432410323427071 3.3268084651803171 -0.6861951480174990 C
atom 1.5720631551485313 10.4904476451074480 10.2008064505705782 C
atom 6.6306507758823665 2.2569217517057827 -1.5016276275929432 C
atom 2.5851204168879653 11.1637636966471252 -2.5477065337519642 C
atom 5.6175935141429321 1.5836057001661077 11.2468853567295977 C
atom 3.8763475023662486 10.7831272464582817 -2.6752090500039016 C
atom 4.3263664286646488 1.9642421503549510 11.3743878729815364 C
atom 4.1801756768438745 9.7236933758891340 9.9302233580921317 C
atom 4.0225382541870225 3.0236760209240985 -1.2310445351144976 C
atom 3.1758533480288640 9.0389046918923270 9.2563696212652538 C
atom 5.0268605830020343 3.7084647049209054 -0.5571907982876206 C
