#=======================================================
# FHI-aims file: pahs_geometry_fix/ABECAL.in
# Created using the Atomic Simulation Environment (ASE)
# Tue May 25 14:20:52 2021
#=======================================================
lattice_vector -0.0000000000000013 -7.8410000000000002 -0.0000000000000005 
lattice_vector -10.0385525378432412 0.0000000000000000 0.6565538401083628 
lattice_vector 0.0000000000000000 0.0000000000000000 -22.6930000000000014 
atom -2.8138062763574614 -6.3198460000000010 -21.9461815586176279 H
atom -7.2247462614857811 -1.5211539999999997 -0.0902646012740099 H
atom -2.2054699925641619 -2.3993460000000004 -11.7650415213281914 H
atom -7.8330825452790815 -5.4416539999999998 -10.2714046385634443 H
atom -4.2091650791176720 -6.8608750000000001 -1.1384808748425619 H
atom -5.8293874587255701 -0.9801250000000000 -20.8979652850490751 H
atom -0.8101111898039522 -2.9403750000000008 -9.8797422051032555 H
atom -9.2284413480392917 -4.9006249999999998 -12.1567039547883837 H
atom -6.4537854265794214 -6.1159800000000004 -1.3025695361943330 H
atom -3.5847671112638224 -1.7250199999999998 -20.7338766236973058 H
atom -8.6040433801854412 -2.1954800000000003 -9.0590997036431240 H
atom -1.4345091576578015 -5.6455200000000003 -12.9773464562485170 H
atom -8.3962453426520884 -4.9711940000000006 -0.2428440681333641 H
atom -1.6423071951911565 -2.8698060000000001 -21.7936020917582738 H
atom -6.6615834641127760 -1.0506940000000000 -10.1188251717040902 H
atom -3.3769690737304687 -6.7903060000000002 -11.9176209881875454 H
atom -9.3458924127320593 -3.7558389999999999 -21.1377195748591156 H
atom -0.6926601251111860 -4.0851610000000003 -0.8987265850325225 H
atom -5.7119363940328052 -7.6763390000000005 -11.9169496649783415 H
atom -4.3266161438104387 -0.1646610000000001 -10.1194964949132977 H
atom -8.0027340831686331 -3.1834460000000004 -19.2263131786656132 H
atom -2.0358184546746112 -4.6575540000000002 -2.8101329812260252 H
atom -7.0550947235962305 -7.1039460000000005 -13.8283560611718421 H
atom -2.9834578142470125 -0.7370539999999998 -8.2080900987197918 H
atom -5.9137113000434534 -3.2461740000000012 -17.9922848327921656 H
atom -4.1248412377997878 -4.5948260000000003 -4.0441613270994754 H
atom -9.1441175067214093 -7.1666740000000004 -15.0623844070452915 H
atom -0.8944350311218313 -0.6743259999999998 -6.9740617528463442 H
atom -3.3297878768026048 -3.3402660000000006 -16.8360105912360574 H
atom -6.7087646610406404 -4.5007340000000005 -5.2004355686555801 H
atom -1.6894883921190187 -7.2607660000000003 -16.8752124887097636 H
atom -8.3490641457242241 -0.5802340000000006 -5.1612336711818738 H
atom -1.5499525118429971 -5.5749510000000004 -19.9070461870872677 H
atom -8.4886000260002454 -2.2660490000000011 -2.1293999728043680 H
atom -3.4693237570786244 -1.6544509999999997 -13.8041768928585515 H
atom -6.5692287807646181 -6.1865490000000003 -8.2322692670330895 H
atom -1.3190658034726042 -3.2932200000000011 -15.7489042254097615 H
atom -8.7194867343706406 -4.5477800000000004 -6.2875419344818777 H
atom -3.7002104654490204 -7.2137200000000004 -17.9623188545360613 H
atom -6.3383420723942221 -0.6272799999999997 -4.0741273053555771 H
atom -9.3137690446109591 -3.2696970000000012 -14.0051413471474628 H
atom -0.7247834932322832 -4.5713029999999995 -8.0313048127441764 H
atom -5.7440597621539045 -7.1901970000000004 -19.0495278926899978 H
atom -4.2944927756893394 -0.6508029999999997 -2.9869182672016406 H
atom -7.6011919816549032 -5.4338130000000007 -17.0581622322699467 H
atom -2.4373605561883394 -2.4071870000000004 -4.9782839276216908 H
atom -7.4566368251099604 -1.5133129999999997 -15.9965070075675069 H
atom -2.5819157127332835 -6.3276870000000001 -6.0399391523241288 H
atom -9.6450412783597876 -5.4808590000000006 -18.1204089704238882 H
atom -0.3935112594834578 -2.3601410000000005 -3.9160371894677493 H
atom -5.4127875284050768 -1.5603590000000005 -14.9342602694135707 H
atom -4.6257650094381662 -6.2806410000000001 -7.1021858904780677 H
atom -7.5369452454127064 -3.0815130000000002 -13.0774733768466422 H
atom -2.5016072924305361 -4.7594870000000000 -8.9589727830449970 H
atom -7.5208835613521572 -7.0020130000000007 -19.9771958629908184 H
atom -2.5176689764910853 -0.8389869999999999 -2.0592502969008195 H
atom -5.4439070412723902 -3.1050360000000001 -11.9685191525092343 H
atom -4.5946454965708519 -4.7359640000000001 -10.0679270073824032 H
atom -9.6139217654924725 -7.0255360000000007 -21.0861500873282210 H
atom -0.4246307723507693 -0.8154639999999999 -0.9502960725634170 H
atom -3.5827594007562533 -4.3203909999999999 -12.7914579344653276 H
atom -6.4557931370869888 -3.5206089999999999 -9.2449882254263134 H
atom -1.4365168681653679 -0.3998910000000004 -20.9197651454804969 H
atom -8.6020356696778748 -7.4411090000000000 -1.1166810144111410 H
atom -3.8548041745318056 -5.5435870000000005 -14.8341897253983905 H
atom -6.1837483633114383 -2.2974130000000001 -7.2022564344932505 H
atom -1.1644720943898150 -1.6230869999999997 -18.8770333545474287 H
atom -8.8740804434534262 -6.2179130000000002 -3.1594128053442065 H
atom -5.9006611817442591 -5.5749510000000004 -15.9870771527843054 H
atom -4.1378913560989847 -2.2660490000000011 -6.0493690071073303 H
atom -9.1571676250206053 -1.6544509999999997 -17.0675920870531534 H
atom -0.8813849128226374 -6.1865490000000003 -4.9688540728384849 H
atom -3.8176615301417853 -6.0336495000000001 -21.9531437746067937 C
atom -6.2208910077014572 -1.8073505000000003 -0.0833023852848441 C
atom -1.2016147387798366 -2.1131494999999996 -11.7580793053390309 C
atom -8.8369377990634064 -5.7278505000000006 -10.2783668545526101 C
atom -4.3386624068558497 -5.3154138999999994 -20.8858563403051676 C
atom -5.6998901309873933 -2.5255861000000013 -1.1505898195864697 C
atom -0.6806138620657706 -1.3949138999999997 -12.8253667396406552 C
atom -9.3579386757774703 -6.4460861000000005 -9.2110794202509823 C
atom -4.6026763386011273 -6.3441531000000007 -0.3795331343103127 C
atom -5.4358761992421165 -1.4968468999999998 -21.6569130255813249 C
atom -0.4165999303204958 -2.4236531000000006 -10.6386899456355053 C
atom -9.6219526075227471 -5.4173469000000010 -11.3977562142561339 C
atom -5.9117035895358852 -5.9481826000000009 -0.4518617935601864 C
atom -4.1268489483073578 -1.8928173999999995 -21.5845843663314518 C
atom -9.1461252172289775 -2.0276826000000003 -9.9098074462772701 C
atom -0.8924273206142649 -5.8133174000000007 -12.1266387136143692 C
atom -6.4999627682534999 -5.2236742000000005 -22.0797564185298363 C
atom -3.5385897695897444 -2.6173258000000001 0.0433102586381974 C
atom -8.5578660385113636 -1.3031742000000002 -10.9749128213076226 C
atom -1.4806864993318787 -6.5378258000000002 -11.0615333385840167 C
atom -7.8491442293396316 -4.7822259000000011 -22.1276735824192734 C
atom -2.1894083085036122 -3.0587740999999999 0.0912274225276360 C
atom -7.2086845774252311 -0.8617259000000000 -10.9269956574181837 C
atom -2.8298679604180110 -6.9792741000000005 -11.1094505024734538 C
atom -8.3831952243528907 -4.0647744000000001 -21.0894873881255087 C
atom -1.6553573134903528 -3.7762256000000005 -0.9469587717661283 C
atom -6.6746335824119711 -0.1442743999999998 -11.9651818517119501 C
atom -3.3639189554312718 -7.6967256000000006 -10.0712643081796891 C
atom -7.6202652314768047 -3.7621118000000009 -19.9647957999737429 C
atom -2.4182873063664374 -4.0788881999999997 -2.0716503599178959 C
atom -7.4375635752880598 -7.6826118000000001 -13.0898734398637160 C
atom -2.6009889625551850 -0.1583882000000000 -8.9465727200279233 C
atom -6.2941724412277127 -4.1580823000000002 -19.8640823822520609 C
atom -3.7443800966155294 -3.6829177000000000 -2.1723637776395774 C
atom -8.7636563655371500 -0.2375823000000000 -13.1905868575853997 C
atom -1.2748961723060930 -7.6034177000000005 -8.8458593023062377 C
atom -5.4971113697229583 -3.7942599000000001 -18.7221070971566590 C
atom -4.5414411681202846 -4.0467401000000001 -3.3143390627349758 C
atom -9.5607174370419052 -7.7147598999999998 -14.3325621426807981 C
atom -0.4778351008013381 -0.1262401000000009 -7.7038840172108412 C
atom -4.1840686977730632 -4.1361275000000006 -18.6525372894428365 C
atom -5.8544838400701780 -3.7048725000000005 -3.3839088704488027 C
atom -0.8352075711485583 -0.2156275000000006 -15.0586857905029863 C
atom -9.2033449666946847 -7.6253725000000001 -6.9777603693886547 C
atom -3.1741903124660338 -3.8734540000000002 -17.6644967557577388 C
atom -6.8643622253772083 -3.9675460000000000 -4.3719494041338987 C
atom -1.8450859564555897 -7.7939540000000003 -16.0467263241880822 C
atom -8.1934665813876535 -0.0470460000000000 -5.9897198357035553 C
atom -2.0006835207921592 -4.4325173000000007 -18.0891315896664047 C
atom -8.0378690170510829 -3.4084827000000000 -3.9473145702252346 C
atom -3.0185927481294637 -0.5120173000000002 -15.6220914902794163 C
atom -7.0199597897137798 -7.3289827000000001 -6.4143546696122229 C
atom -2.2436164922079644 -5.0786157000000003 -19.3873946167357829 C
atom -7.7949360456352768 -2.7623842999999995 -2.6490515431558563 C
atom -2.7756597767136570 -1.1581157000000004 -14.3238284632100381 C
atom -7.2628927611295868 -6.6828843000000004 -7.7126176966816002 C
atom -5.7069171177638838 -4.9116024000000005 -20.9354761418983983 C
atom -4.3316354200793592 -2.9293976000000006 -1.1009700179932429 C
atom -9.3509116890009789 -0.9911024000000006 -12.1191930979390587 C
atom -0.6876408488422643 -6.8498975999999994 -9.9172530619525769 C
atom -3.5586668746654300 -4.9116024000000005 -19.7273336736815850 C
atom -6.4798856631778126 -2.9293976000000006 -2.3091124862100529 C
atom -1.4606093942561924 -0.9911024000000006 -13.9838894062642343 C
atom -8.5779431435870510 -6.8498975999999994 -8.0525567536274050 C
atom -0.7037025329028125 -4.4027215000000002 -17.3949076558084030 C
atom -9.3348500049404315 -3.4382785000000000 -4.6415385040832309 C
atom -4.3155737360188100 -0.4822215000000000 -16.3163154241374144 C
atom -5.7229788018244339 -7.3587785000000006 -5.7201307357542239 C
atom -0.5481049685662436 -3.7534867000000003 -16.1669541603300821 C
atom -9.4904475692770003 -4.0875133000000003 -5.8694919995615553 C
atom -4.4711713003553815 -7.6739867000000004 -17.5442689196157389 C
atom -5.5673812374878615 -0.1670132999999999 -4.4921772402758986 C
atom -9.3719926493304513 -3.7197704000000003 -14.8573132948748334 C
atom -0.6665598885127942 -4.1212296000000004 -7.1791328650168058 C
atom -5.6858361574344132 -7.6402704000000004 -18.1973559449626237 C
atom -4.3527163804088289 -0.2007296000000005 -3.8390902149290138 C
atom -8.2306092257776733 -4.3360729999999998 -15.3828733764951533 C
atom -1.8079433120655699 -3.5049269999999999 -6.6535727833964833 C
atom -6.8272195809871876 -0.4155730000000004 -17.6717958633423038 C
atom -3.2113329568560549 -7.4254270000000000 -4.3646502965493337 C
atom -8.3892183558755971 -4.9758986000000007 -16.6138069258214429 C
atom -1.6493341819676461 -2.8651013999999995 -5.4226392340701963 C
atom -6.6686104508892665 -1.0553986000000004 -16.4408623140160159 C
atom -3.3699420869539782 -6.7856014000000000 -5.5955838458756233 C
atom -9.6089024892235511 -5.0127512999999997 -17.2670195342482771 C
atom -0.4296500486196918 -2.8282487000000009 -4.7694266256433622 C
atom -5.4489263175413125 -1.0922512999999998 -15.7876497055891818 C
atom -4.5896262203019313 -6.7487487000000002 -6.2487964543024574 C
atom -6.9276051063656210 -4.3227433000000008 -14.6581808949412178 C
atom -3.1109474314776215 -3.5182566999999998 -7.3782652649504179 C
atom -8.1302237003992417 -0.4022433000000010 -18.3964883448962411 C
atom -1.9083288374440028 -7.4387566999999999 -3.6399578149954017 C
atom -6.7639766999987758 -3.6170533000000002 -13.4645652125349855 C
atom -3.2745758378444663 -4.2239467000000008 -8.5718809473566537 C
atom -8.2938521067660869 -7.5375533000000008 -19.5901040273024734 C
atom -1.7447004310771539 -0.3034466999999997 -2.4463421325891641 C
atom -5.5573426849500178 -3.6225420000000006 -12.7812251141160100 C
atom -4.4812098528932252 -4.2184580000000000 -9.2552210457756274 C
atom -9.5004861218148449 -7.5430419999999998 -20.2734441257214471 C
atom -0.5380664160283976 -0.2979580000000003 -1.7630020341701913 C
atom -4.4802059976394411 -4.3337206999999998 -13.2719477011596396 C
atom -5.5583465402038037 -3.5072793000000004 -8.7644984587320014 C
atom -0.5390702712821818 -0.4132207000000007 -20.4392753787861849 C
atom -9.4994822665610599 -7.4277793000000001 -1.5971707811054559 C
atom -4.6107071806314011 -5.0354901999999999 -14.4522987712382296 C
atom -5.4278453572118419 -2.8055098000000003 -7.5841473886534088 C
atom -0.4085690882902197 -1.1149902000000009 -19.2589243087075914 C
atom -9.6299834495530234 -6.7260097999999999 -2.7775218511840456 C
atom -5.8173411956801582 -5.0284332999999997 -15.1367735196572060 C
atom -4.2212113421630839 -2.8125667000000010 -6.8996726402344315 C
atom -9.2404876110847027 -1.1079332999999998 -17.9178957201802547 C
atom -0.7980649267585400 -6.7330667000000002 -4.1185504397113837 C
