#=======================================================
# FHI-aims file: pahs_geometry_fix/PENCEN.in
# Created using the Atomic Simulation Environment (ASE)
# Tue May 25 14:20:53 2021
#=======================================================
lattice_vector -0.0394178343506610 5.9296334341559449 -1.2495973635035762 
lattice_vector -7.2933607151925504 0.0000000000000000 3.0359330490124483 
lattice_vector 7.2933607151925504 0.0000000000000000 12.9740669509875524 
atom 1.4698295128803875 0.5158781087715671 6.9948465534746740 H
atom -1.5092473472310484 5.4137553253843782 7.7655560830217496 H
atom -0.6425220798742961 3.3976799577713561 3.5605450198785094 H
atom 0.6031042455236348 2.5319534763845883 11.1998576166179156 H
atom 0.2119847201940727 4.3167731400655276 5.7143073287519854 H
atom -0.2514025545447330 1.6128602940904171 9.0460953077444373 H
atom 1.7825778926382732 1.7433122296418477 4.8094788450728867 H
atom -1.8219957269889333 4.1863212045140967 9.9509237914235378 H
atom 1.4606057396423333 1.9034123323640584 2.4758007704148377 H
atom -1.5000235739929941 4.0262211017918865 12.2846018660815872 H
atom -6.1261055353662961 2.1465273031644525 3.0683676494841370 H
atom 6.0866877010156344 3.7831061309914928 11.6920349870122848 H
atom -0.9136377970356410 3.5874282276643465 1.1833574270598550 H
atom 0.8742199626849803 2.3422052064915984 13.5770452094365695 H
atom -3.2861874281968566 3.9194876999770796 8.1358282156327011 H
atom 3.2467695938461962 2.0101457341788653 6.6245744208637243 H
atom -4.0668518882025939 5.0579773193350208 5.9763144250353344 H
atom 4.0274340538519340 0.8716561148209239 8.7840882114610910 H
atom -4.4031348377884640 5.1765699880181399 3.5774053980198341 H
atom 4.3637170034378032 0.7530634461378050 11.1829972384765899 H
atom -4.6881277553618830 5.2595848560963230 1.1487324238422698 H
atom 4.6487099210112222 0.6700485780596219 13.6116702126541522 H
atom -2.3890284086404319 0.6166818771522182 3.1362119812226976 H
atom 2.3496105742897719 5.3129515570037267 11.6241906552737255 H
atom -2.0601964911071580 0.5218077422057231 5.6132085518331953 H
atom 2.0207786567564963 5.4078256919502223 9.1471940846632283 H
atom -2.1984539406606909 1.5713528600513258 7.8321666133752874 H
atom 2.1590361063100292 4.3582805741046196 6.9282360231211380 H
atom 1.0816133837659574 0.1085122918450538 6.0442709037744375 C
atom -1.1210312181166182 5.8211211423108908 8.7161317327219869 C
atom -0.1398942596536238 4.3677679875992697 3.5860787643882555 C
atom 0.1004764253029626 1.5618654465566759 11.1743238721081681 C
atom 0.3462027969509509 4.8622994160078745 4.7510712366833205 C
atom -0.3856206313016124 1.0673340181480699 10.0093313998131030 C
atom 1.2396119068282430 0.8070231103886241 4.9007870273607388 C
atom -1.2790297411789038 5.1226103237673204 9.8596156091356857 C
atom 0.7488353164700529 0.3581498594230191 3.6271312151961022 C
atom -0.7882531508207130 5.5714835747329268 11.1332714213003214 C
atom 0.9226702124476721 0.9783895166357309 2.4393325645777244 C
atom -0.9620880467983336 4.9512439175202134 12.3210700719187010 C
atom 0.4134315968622660 0.5639081395882304 1.2284579203272978 C
atom -0.4528494312129278 5.3657252945677145 13.5319447161691269 C
atom -6.6269828853337032 1.2422582044556705 3.0296535943247980 C
atom 6.5875650509830415 4.6873752297002742 11.7307490421716274 C
atom -0.2001405543107069 5.2020674117850101 -0.1195890867891045 C
atom 0.1607227199600442 0.7275660223709346 14.8799917232855279 C
atom -0.4240946664845308 4.5509936607146875 1.1660994081576779 C
atom 0.3846768321338698 1.3786397734412572 13.5943032283387453 C
atom 0.0759583200647875 5.0307010055379040 2.3348516010683795 C
atom -0.1153761544154486 0.8989324286180413 12.4255510354280450 C
atom -3.2119848851869364 3.3994588478016032 7.0376333538365436 C
atom 3.1725670508362751 2.5301745863543417 7.7227692826598808 C
atom -3.6479774313687261 4.0351155519431208 5.9178757529704971 C
atom 3.6085595970180648 1.8945178822128244 8.8425268835259274 C
atom -3.5166817020416792 3.4842526059100334 4.6167825196822614 C
atom 3.4772638676910188 2.4453808282459115 10.1436201168141640 C
atom -3.9791747373711370 4.1566730373433174 3.4681867741389376 C
atom 3.9397569030204753 1.7729603968126275 11.2922158623574873 C
atom -3.8091493023683047 3.5945437877853337 2.1725893306815927 C
atom 3.7697314680176439 2.3350896463706108 12.5878133058148318 C
atom -4.2356762467540845 4.2325723453005137 1.0195671779064286 C
atom 4.1962584124034228 1.6970610888554314 13.7408354585899950 C
atom -3.2079884474639382 2.2497029249187661 2.0621882491443926 C
atom 3.1685706131132791 3.6799305092371797 12.6982143873520315 C
atom -2.8530349826729235 1.6264984509889759 3.2146215523911201 C
atom 2.8136171483222618 4.3031349831669692 11.5457810841053039 C
atom -2.8872501788192060 2.1655021301537514 4.4890430708544971 C
atom 2.8478323444685456 3.7641313040021940 10.2713595656419283 C
atom -2.5270691662410676 1.5239157925780780 5.6800479727937772 C
atom 2.4876513318904077 4.4057176415778674 9.0803546637026464 C
atom -2.5693385934415445 2.0676631784901782 6.9119813397202652 C
atom 2.5299207590908841 3.8619702556657667 7.8484212967761602 C
