#=======================================================
# FHI-aims file: pahs_geometry_fix/ZZZDKE01.in
# Created using the Atomic Simulation Environment (ASE)
# Tue May 25 14:20:53 2021
#=======================================================
lattice_vector 6.3044993427659071 0.0000000000000000 -0.1375646650279419 
lattice_vector -0.8049592080107469 7.5642998440943190 -1.1735491221390624 
lattice_vector 0.0000000000000000 0.0000000000000000 16.4800000000000004 
atom 5.5241272776772927 1.3199703227944586 4.9649898266591279 H
atom -0.0245871429221320 6.2443295212998606 10.2038963861738683 H
atom 5.9217165125321660 2.6906214545443494 6.7493966516021215 H
atom -0.4221763777770058 4.8736783895499700 8.4194895612308738 H
atom 1.6320603951380217 3.9236023291317235 7.0212937977458845 H
atom 3.8674797396171385 3.6406975149625960 8.1475924150871109 H
atom 3.2099456670149453 3.7352512630137746 5.3998349421587424 H
atom 2.2895944677402151 3.8290485810805444 9.7690512706742521 H
atom -0.0112061024554272 0.3245084633116463 2.9600417533996310 H
atom 5.5107462372105873 7.2397913807826724 12.2088444594333652 H
atom 3.9570188470841883 2.7518922832815131 3.2394184886704736 H
atom 1.5425212876709722 4.8124075608128054 11.9294677241625227 H
atom -0.0350337078418723 6.8638456785311845 -0.3351558559815673 H
atom 5.5345738425970321 0.7004541655631340 15.5040420688145630 H
atom 4.7501289984597452 1.7269296544067330 1.1273966285647850 H
atom 0.7494111362954148 5.8373701896875865 14.0414895842682128 H
atom 1.9333366917387362 6.9576429965979543 3.5392523430181404 H
atom 3.5662034430164238 0.6066568474963643 11.6296338698148549 H
atom 2.3065809576148770 7.4788232558560530 5.7232804112808591 H
atom 3.1929591771402830 0.0854765882382658 9.4456058015521371 H
atom 4.3358892039298631 6.8577942386559094 6.7639431575187752 H
atom 1.1636509308252969 0.7065056054384093 8.4049430553142201 H
atom -0.3621108241146377 5.7488678815116829 5.7457431064392068 H
atom 5.8616509588697978 1.8154319625826365 9.4231431063937894 H
atom 2.7157027680393178 5.9092310382064817 1.4097333709876416 H
atom 2.7838373667158418 1.6550688058878369 13.7591528418453564 H
atom 0.4283570879786069 4.7072637929798944 3.6215673496677425 H
atom 5.0711830467765537 2.8570360511144242 11.5473188631652537 H
atom 3.5024008892870442 4.8971277190666616 -0.6975814708936615 H
atom 1.9971392454681158 2.6671721250276570 15.8664676837266576 H
atom 1.2120104903400153 3.6823011641051147 1.5097518365595959 H
atom 4.2875296444151454 3.8819986799892043 13.6591343762733999 H
atom 0.0214583252223928 1.7889569131283063 5.1506302598691729 C
atom 5.4780818095327675 5.7753429309660120 10.0182559529638233 C
atom 0.2541473300033316 2.6119527361657684 6.2130670303970232 C
atom 5.2453928047518277 4.9523471079285502 8.9558191824359721 C
atom 1.4827204779549945 3.3600619907466962 6.2963767542241724 C
atom 4.0168196568001653 4.2042378533476219 8.8725094586088247 C
atom 2.4214757735409429 3.2473539230696913 5.3265942303849370 C
atom 3.0780643612142176 4.3169459210246277 9.8422919824480584 C
atom 2.2315639596098698 2.3956137606246708 4.1891406891315386 C
atom 3.2679761751452903 5.1686860834696482 10.9797455237014585 C
atom 0.9950634851392790 1.6331323363399635 4.1024990556339960 C
atom 4.5044766496158815 5.9311675077543553 11.0663871571989993 C
atom 0.7877805044352698 0.7965207735831318 3.0179207277988898 C
atom 4.7117596303198903 6.7677790705111880 12.1509654850341082 C
atom 1.7535117988897646 0.6376704768571511 1.9958169772771046 C
atom 3.7460283358653954 6.9266293672371679 13.1730692355558929 C
atom 2.9977251469811446 1.4046904810483152 2.0789388472368278 C
atom 2.5018149877740155 6.1596093630460045 13.0899473655961689 C
atom 3.1717952166345023 2.2571870734777448 3.1826701452405817 C
atom 2.3277449181206578 5.3071127706165742 11.9862160675924141 C
atom 0.7600761860902321 7.3426658586623557 -0.2748034934597197 C
atom 4.7394639486649277 0.2216339854319636 15.4436897062927159 C
atom 1.7270014019246112 7.1785205520455087 15.1965900839374903 C
atom 3.7725387328305491 0.3857792920488102 -0.0277038711044942 C
atom 3.9579433838687526 1.2443273243535156 1.0685648147379956 C
atom 1.5415967508864075 6.3199725197408041 14.1003213980950015 C
atom 2.7370036268037237 6.7102903916960708 3.9364096761141423 C
atom 2.7625365079514363 0.8540094523982487 11.2324765367188544 C
atom 2.9553888312100414 7.0219395452727564 5.2392042221473982 C
atom 2.5441513035451191 0.5423602988215627 9.9296819906855980 C
atom 4.1923112627883485 6.6429681230836310 5.8707724597442628 C
atom 1.3072288719668117 0.9213317210106881 9.2981137530887352 C
atom 5.1500297387788549 5.9788225967721500 5.1798947242986397 C
atom 0.3495103959763049 1.5854772473221694 9.9889914885343547 C
atom 4.9691771902821840 5.6225440741153072 3.8037103818278593 C
atom 0.5303629444729758 1.9417557699790116 11.3651758310051374 C
atom 3.7165604888356305 6.0068105061952988 3.1564892150415660 C
atom 1.7829796459195291 1.5574893378990202 12.0123969977914307 C
atom 3.5175318143580125 5.6732248830707395 1.8165153368669376 C
atom 1.9820083203971470 1.8910749610235797 13.3523708759660593 C
atom 4.4965786660008495 4.9863864572269749 1.0555743547926493 C
atom 1.0029614687543102 2.5779133868673441 14.1133118580403458 C
atom 5.7492623459360725 4.6074150350378495 1.7049266807269432 C
atom -0.2497222111809121 2.9568848090564694 13.4639595321060543 C
atom -0.3686698466282787 4.9455392380688661 3.2046000673197823 C
atom 5.8682099813834387 2.6187606060254534 11.9642861455132135 C
atom 4.3033715153411913 4.6573394140088720 -0.2895260175202901 C
atom 1.1961686194139687 2.9069604300854466 15.4584122303532858 C
atom 5.2762613420507325 3.9750395680715642 15.4263158791306623 C
atom 0.2232787927044277 3.5892602760227543 -0.2574296662976674 C
atom 0.4146615720499253 3.9236023291317235 1.0962703345627800 C
atom 5.0848785627052342 3.6406975149625960 14.0726158782702164 C
