# 
# This is the geometry file that corresponds to the current relaxation step.
# If you do not want this file to be written, set the "write_restart_geometry" flag to .false.
#  aims_uuid : 8BBCDE11-7CC3-4730-A28D-1374ED624BEE                                
# 
lattice_vector      0.00000000      0.00000000      7.68900000
lattice_vector     13.61434737      0.00000000     -0.13330638
lattice_vector      0.00000000     30.33200000      0.00000000
atom       7.47632637      4.81931041      1.29214886 H
atom       6.13802099     25.51268959      6.26354477 H
atom       6.13802099     19.98531041      2.41904477 H
atom       7.47632637     10.34668959      5.13664886 H
atom       6.28753405      6.20639471      2.95176253 H
atom       7.32681332     24.12560528      4.60393109 H
atom       7.32681332     21.37239472      0.75943109 H
atom       6.28753405      8.95960529      6.79626253 H
atom       3.97452669      6.95662802      2.50632616 H
atom       9.63982068     23.37537197      5.04936747 H
atom       9.63982068     22.12262803      1.20486747 H
atom       3.97452669      8.20937198      6.35082616 H
atom       2.81608743      6.21904066      0.43837437 H
atom      10.79825994     24.11295934      7.11731925 H
atom      10.79825994     21.38504066      3.27281925 H
atom       2.81608743      8.94695934      4.28287437 H
atom       4.01059065      4.81868656      6.47950230 H
atom       9.60375672     25.51331343      1.07619132 H
atom       9.60375672     19.98468657      4.92069132 H
atom       4.01059065     10.34731344      2.63500230 H
atom       5.83329740      2.06951602      7.27490878 H
atom       7.78104999     28.26248395      0.28078483 H
atom       7.78104999     17.23551605      4.12528483 H
atom       5.83329740     13.09648398      3.43040878 H
atom       6.47455674     30.24484614      6.37117351 H
atom       7.13979065      0.08715382      1.18452009 H
atom       7.13979065     15.07884618      5.02902009 H
atom       6.47455674     15.25315386      2.52667351 H
atom       7.19783807     27.99933214      5.52920496 H
atom       6.41650930      2.33266783      2.02648863 H
atom       6.41650930     12.83333217      5.87098863 H
atom       7.19783807     17.49866786      1.68470496 H
atom       8.70534110     26.65466972      4.13343262 H
atom       4.90900627      3.67733028      3.42226099 H
atom       4.90900627     11.48866972      7.26676099 H
atom       8.70534110     18.84333028      0.28893262 H
atom      10.41654450     27.76842580      2.69015417 H
atom       3.19780286      2.56357417      4.86553945 H
atom       3.19780286     12.60242583      1.02103945 H
atom      10.41654450     17.72957420      6.53465417 H
atom      10.60094342     30.21926891      2.67229972 H
atom       3.01340399      0.11273105      4.88339391 H
atom       3.01340399     15.05326895      1.03889391 H
atom      10.60094342     15.27873109      6.51679972 H
atom       9.82470013      2.05839381      3.39811885 H
atom       3.78964727     28.27360616      4.15757479 H
atom       3.78964727     17.22439384      0.31307479 H
atom       9.82470013     13.10760619      7.24261885 H
atom       9.70496067      4.04410488      3.16112583 H
atom       3.90938669     26.28789510      4.39456779 H
atom       3.90938669     19.21010490      0.55006779 H
atom       9.70496067     11.12189512      7.00562583 H
atom       9.68162071      6.47247296      3.08278377 H
atom       3.93272664     23.85952706      4.47290984 H
atom       3.93272664     21.63847294      0.62840984 H
atom       9.68162071      8.69352704      6.92728377 H
atom       8.23366973      7.77376647      4.63676369 H
atom       5.38067764     22.55823353      2.91892993 H
atom       5.38067764     22.93976647      6.76342993 H
atom       8.23366973      7.39223353      0.79226369 H
atom       6.80415120      6.59529890      6.24866678 H
atom       6.81019617     23.73670109      1.30702685 H
atom       6.81019617     21.76129891      5.15152685 H
atom       6.80415120      8.57070110      2.40416678 H
atom      11.99334556      5.00485362      4.78146682 H
atom       1.62100182     25.32714638      2.77422680 H
atom       1.62100182     20.17085362      6.61872680 H
atom      11.99334556     10.16114638      0.93696682 H
atom      12.97408244      6.59681283      6.38379167 H
atom       0.64026493     23.73518716      1.17190195 H
atom       0.64026493     21.76281284      5.01640195 H
atom      12.97408244      8.56918717      2.53929167 H
atom       1.73991051      7.25005170      6.31381038 H
atom      11.87443686     23.08194830      1.24188324 H
atom      11.87443686     22.41605170      5.08638324 H
atom       1.73991051      7.91594830      2.46931038 H
atom       3.16391757      6.18174900      4.58620061 H
atom      10.45042980     24.15025100      2.96949301 H
atom      10.45042980     21.34774900      6.81399301 H
atom       3.16391757      8.98425100      0.74170061 H
atom       2.18788738      4.55812925      3.00519845 H
atom      11.42646000     25.77387073      4.55049519 H
atom      11.42646000     19.72412927      0.70599519 H
atom       2.18788738     10.60787075      6.84969845 H
atom       0.67262970      2.04940508      3.51987002 H
atom      12.94171767     28.28259489      4.03582360 H
atom      12.94171767     17.21540511      0.19132360 H
atom       0.67262970     13.11659492      7.36437002 H
atom       0.44102894     30.15458508      2.62136104 H
atom      13.17331840      0.17741486      4.93433259 H
atom      13.17331840     14.98858514      1.08983259 H
atom       0.44102894     15.34341492      6.46586104 H
atom       0.15362755     27.81533265      1.78784874 H
atom      13.46071982      2.51666731      5.76784486 H
atom      13.46071982     12.64933269      1.92334486 H
atom       0.15362755     17.68266735      5.63234874 H
atom      12.56622539     26.21577998      0.23049469 H
atom       1.04812197      4.11622002      7.32519893 H
atom       1.04812197     11.04977998      3.48069893 H
atom      12.56622539     19.28222002      4.07499469 H
atom      10.71597780     27.00077042      6.43118495 H
atom       2.89836958      3.33122956      1.12450869 H
atom       2.89836958     11.83477044      4.96900869 H
atom      10.71597780     18.49722958      2.58668495 H
atom      10.09276493     29.36612861      6.38496177 H
atom       3.52158244      0.96587136      1.17073183 H
atom       3.52158244     14.20012864      5.01523183 H
atom      10.09276493     16.13187139      2.54046177 H
atom      10.39888461      1.30079346      7.16928869 H
atom       3.21546277     29.03120650      0.38640490 H
atom       3.21546277     16.46679350      4.23090490 H
atom      10.39888461     13.86520654      3.32478869 H
atom      10.09344737      3.26491426      6.99057190 H
atom       3.52090002     27.06708572      0.56512173 H
atom       3.52090002     18.43091428      4.40962173 H
atom      10.09344737     11.90108574      3.14607190 H
atom       9.73873252      5.66849644      6.83986479 H
atom       3.87561486     24.66350356      0.71582883 H
atom       3.87561486     20.83449644      4.56032883 H
atom       9.73873252      9.49750356      2.99536479 H
atom      11.00918166      7.22412682      0.62824645 H
atom       2.60516572     23.10787318      6.92744716 H
atom       2.60516572     22.39012682      3.08294716 H
atom      11.00918166      7.94187318      4.47274645 H
atom      12.57653973      6.31690512      2.28910895 H
atom       1.03780767     24.01509487      5.26658467 H
atom       1.03780767     21.48290513      1.42208467 H
atom      12.57653973      8.84909488      6.13360895 H
atom       6.44802720      5.12914120      1.09944023 C
  constrain_relaxation .true.
atom       7.16632017     25.20285880      6.45625339 C
  constrain_relaxation .true.
atom       7.16632017     20.29514120      2.61175339 C
  constrain_relaxation .true.
atom       6.44802720     10.03685880      4.94394023 C
  constrain_relaxation .true.
atom       5.78201333      5.91928980      2.03094828 C
  constrain_relaxation .true.
atom       7.83233404     24.41271020      5.52474534 C
  constrain_relaxation .true.
atom       7.83233404     21.08528980      1.68024534 C
  constrain_relaxation .true.
atom       5.78201333      9.24671020      5.87544828 C
  constrain_relaxation .true.
atom       4.48919490      6.32300872      1.78448775 C
  constrain_relaxation .true.
atom       9.12515247     24.00899128      5.77120587 C
  constrain_relaxation .true.
atom       9.12515247     21.48900872      1.92670587 C
  constrain_relaxation .true.
atom       4.48919490      8.84299128      5.62898775 C
  constrain_relaxation .true.
atom       3.84945672      5.92899604      0.62509942 C
  constrain_relaxation .true.
atom       9.76489065     24.40300396      6.93059420 C
  constrain_relaxation .true.
atom       9.76489065     21.09499604      3.08609420 C
  constrain_relaxation .true.
atom       3.84945672      9.23700396      4.46959942 C
  constrain_relaxation .true.
atom       4.52009947      5.13702752      7.38869725 C
  constrain_relaxation .true.
atom       9.09424790     25.19497248      0.16699637 C
  constrain_relaxation .true.
atom       9.09424790     20.30302752      4.01149637 C
  constrain_relaxation .true.
atom       4.52009947     10.02897248      3.54419725 C
  constrain_relaxation .true.
atom       5.82857440      4.73816172      7.61039967 C
  constrain_relaxation .true.
atom       7.78577298     25.59383828     -0.05470605 C
  constrain_relaxation .true.
atom       7.78577298     19.90416172      3.78979395 C
  constrain_relaxation .true.
atom       5.82857440     10.42783828      3.76589967 C
  constrain_relaxation .true.
atom       6.58934413      3.92526412      6.60799391 C
  constrain_relaxation .true.
atom       7.02500324     26.40673588      0.94769971 C
  constrain_relaxation .true.
atom       7.02500324     19.09126412      4.79219971 C
  constrain_relaxation .true.
atom       6.58934413     11.24073588      2.76349391 C
  constrain_relaxation .true.
atom       6.51528208      2.58064656      6.59334110 C
  constrain_relaxation .true.
atom       7.09906529     27.75135344      0.96235252 C
  constrain_relaxation .true.
atom       7.09906529     17.74664656      4.80685252 C
  constrain_relaxation .true.
atom       6.51528208     12.58535344      2.74884110 C
  constrain_relaxation .true.
atom       7.31594185      1.76865892      5.71587545 C
  constrain_relaxation .true.
atom       6.29840553     28.56334108      1.83981817 C
  constrain_relaxation .true.
atom       6.29840553     16.93465892      5.68431817 C
  constrain_relaxation .true.
atom       7.31594185     13.39734108      1.87137545 C
  constrain_relaxation .true.
atom       7.21669326      0.38248652      5.72222955 C
  constrain_relaxation .true.
atom       6.39765412     29.94951348      1.83346407 C
  constrain_relaxation .true.
atom       6.39765412     15.54848652      5.67796407 C
  constrain_relaxation .true.
atom       7.21669326     14.78351348      1.87772955 C
  constrain_relaxation .true.
atom       8.03001437     29.90189224      4.91922323 C
  constrain_relaxation .true.
atom       5.58433301      0.43010776      2.63647039 C
  constrain_relaxation .true.
atom       5.58433301     14.73589224      6.48097039 C
  constrain_relaxation .true.
atom       8.03001437     15.59610776      1.07472323 C
  constrain_relaxation .true.
atom       7.95132344     28.48569116      4.90999804 C
  constrain_relaxation .true.
atom       5.66302393      1.84630884      2.64569558 C
  constrain_relaxation .true.
atom       5.66302393     13.31969116      6.49019558 C
  constrain_relaxation .true.
atom       7.95132344     17.01230884      1.06549804 C
  constrain_relaxation .true.
atom       8.79119253     27.74073724      4.13441217 C
  constrain_relaxation .true.
atom       4.82315484      2.59126276      3.42128145 C
  constrain_relaxation .true.
atom       4.82315484     12.57473724      7.26578145 C
  constrain_relaxation .true.
atom       8.79119253     17.75726276      0.28991217 C
  constrain_relaxation .true.
atom       9.75522447     28.37073288      3.31301435 C
  constrain_relaxation .true.
atom       3.85912291      1.96126712      4.24267927 C
  constrain_relaxation .true.
atom       3.85912291     13.20473288      0.39817927 C
  constrain_relaxation .true.
atom       9.75522447     17.12726712      7.15751435 C
  constrain_relaxation .true.
atom       9.85991880     29.72960648      3.29968682 C
  constrain_relaxation .true.
atom       3.75442858      0.60239352      4.25600680 C
  constrain_relaxation .true.
atom       3.75442858     14.56360648      0.41150680 C
  constrain_relaxation .true.
atom       9.85991880     15.76839352      7.14418682 C
  constrain_relaxation .true.
atom       9.00058119      0.21262732      4.08469012 C
  constrain_relaxation .true.
atom       4.61376618     30.11937268      3.47100350 C
  constrain_relaxation .true.
atom       4.61376618     15.37862732      7.31550350 C
  constrain_relaxation .true.
atom       9.00058119     14.95337268      0.24019012 C
  constrain_relaxation .true.
atom       9.08213113      1.61244912      4.06005571 C
  constrain_relaxation .true.
atom       4.53221624     28.71955088      3.49563791 C
  constrain_relaxation .true.
atom       4.53221624     16.77844912      7.34013791 C
  constrain_relaxation .true.
atom       9.08213113     13.55355088      0.21555571 C
  constrain_relaxation .true.
atom       8.25151980      2.40745084      4.83555094 C
  constrain_relaxation .true.
atom       5.36282757     27.92454916      2.72014268 C
  constrain_relaxation .true.
atom       5.36282757     17.57345084      6.56464268 C
  constrain_relaxation .true.
atom       8.25151980     12.75854916      0.99105094 C
  constrain_relaxation .true.
atom       8.26567872      3.87339640      4.77620700 C
  constrain_relaxation .true.
atom       5.34866865     26.45860360      2.77948662 C
  constrain_relaxation .true.
atom       5.34866865     19.03939640      6.62398662 C
  constrain_relaxation .true.
atom       8.26567872     11.29260360      0.93170700 C
  constrain_relaxation .true.
atom       9.06946979      4.58377184      3.86103459 C
  constrain_relaxation .true.
atom       4.54487758     25.74822816      3.69465903 C
  constrain_relaxation .true.
atom       4.54487758     19.74977184      7.53915903 C
  constrain_relaxation .true.
atom       9.06946979     10.58222816      0.01653459 C
  constrain_relaxation .true.
atom       9.06089275      5.95963136      3.81575347 C
  constrain_relaxation .true.
atom       4.55345462     24.37236864      3.73994015 C
  constrain_relaxation .true.
atom       4.55345462     21.12563136      7.58444015 C
  constrain_relaxation .true.
atom       9.06089275      9.20636864     -0.02874653 C
  constrain_relaxation .true.
atom       8.24852464      6.68547612      4.67872466 C
  constrain_relaxation .true.
atom       5.36582273     23.64652388      2.87696896 C
  constrain_relaxation .true.
atom       5.36582273     21.85147612      6.72146896 C
  constrain_relaxation .true.
atom       8.24852464      8.48052388      0.83422466 C
  constrain_relaxation .true.
atom       7.44772873      6.02818168      5.58002754 C
  constrain_relaxation .true.
atom       6.16661864     24.30381832      1.97566608 C
  constrain_relaxation .true.
atom       6.16661864     21.19418168      5.82016608 C
  constrain_relaxation .true.
atom       7.44772873      9.13781832      1.73552754 C
  constrain_relaxation .true.
atom       7.43819869      4.62108020      5.65316636 C
  constrain_relaxation .true.
atom       6.17614869     25.71091980      1.90252726 C
  constrain_relaxation .true.
atom       6.17614869     19.78708020      5.74702726 C
  constrain_relaxation .true.
atom       7.43819869     10.54491980      1.80866636 C
  constrain_relaxation .true.
atom      13.04894353      5.26897172      4.70015293 C
  constrain_relaxation .true.
atom       0.56540385     25.06302828      2.85554069 C
  constrain_relaxation .true.
atom       0.56540385     20.43497172      6.70004069 C
  constrain_relaxation .true.
atom      13.04894353      9.89702828      0.85565293 C
  constrain_relaxation .true.
atom      13.59501500      6.17498856      5.59518792 C
  constrain_relaxation .true.
atom       0.01933237     24.15701144      1.96050570 C
  constrain_relaxation .true.
atom       0.01933237     21.34098856      5.80500570 C
  constrain_relaxation .true.
atom      13.59501500      8.99101144      1.75068792 C
  constrain_relaxation .true.
atom       1.31732425      6.51652688      5.62698277 C
  constrain_relaxation .true.
atom      12.29702312     23.81547312      1.92871085 C
  constrain_relaxation .true.
atom      12.29702312     21.68252688      5.77321085 C
  constrain_relaxation .true.
atom       1.31732425      8.64947312      1.78248277 C
  constrain_relaxation .true.
atom       2.10627568      5.92838940      4.65813267 C
  constrain_relaxation .true.
atom      11.50807169     24.40361060      2.89756095 C
  constrain_relaxation .true.
atom      11.50807169     21.09438940      6.74206095 C
  constrain_relaxation .true.
atom       2.10627568      9.23761060      0.81363267 C
  constrain_relaxation .true.
atom       1.56088493      5.00963312      3.77385562 C
  constrain_relaxation .true.
atom      12.05346245     25.32236688      3.78183800 C
  constrain_relaxation .true.
atom      12.05346245     20.17563312     -0.06266200 C
  constrain_relaxation .true.
atom       1.56088493     10.15636688      7.61835562 C
  constrain_relaxation .true.
atom       0.21224768      4.68053092      3.83242605 C
  constrain_relaxation .true.
atom      13.40209970     25.65146908      3.72326757 C
  constrain_relaxation .true.
atom      13.40209970     19.84653092     -0.12123243 C
  constrain_relaxation .true.
atom       0.21224768     10.48546908      7.67692605 C
  constrain_relaxation .true.
atom      13.20428323      3.74054224      2.72409671 C
  constrain_relaxation .true.
atom       0.41006414     26.59145776      4.83159691 C
  constrain_relaxation .true.
atom       0.41006414     18.90654224      0.98709691 C
  constrain_relaxation .true.
atom      13.20428323     11.42545776      6.56859671 C
  constrain_relaxation .true.
atom      13.51959152      2.43080648      2.71178253 C
  constrain_relaxation .true.
atom       0.09475586     27.90119352      4.84391109 C
  constrain_relaxation .true.
atom       0.09475586     17.59680648      0.99941109 C
  constrain_relaxation .true.
atom      13.51959152     12.73519352      6.55628253 C
  constrain_relaxation .true.
atom      12.87821961      1.48535804      1.83305870 C
  constrain_relaxation .true.
atom       0.73612776     28.84664196      5.72263492 C
  constrain_relaxation .true.
atom       0.73612776     16.65135804      1.87813492 C
  constrain_relaxation .true.
atom      12.87821961     13.68064196      5.67755870 C
  constrain_relaxation .true.
atom      13.23736609      0.14407700      1.84107557 C
  constrain_relaxation .true.
atom       0.37698128     30.18792300      5.71461805 C
  constrain_relaxation .true.
atom       0.37698128     15.31007700      1.87011805 C
  constrain_relaxation .true.
atom      13.23736609     15.02192300      5.68557557 C
  constrain_relaxation .true.
atom      12.59830863     29.52941528      1.02845448 C
  constrain_relaxation .true.
atom       1.01603874      0.80258472      6.52723914 C
  constrain_relaxation .true.
atom       1.01603874     14.36341528      2.68273914 C
  constrain_relaxation .true.
atom      12.59830863     15.96858472      4.87295448 C
  constrain_relaxation .true.
atom      12.94411305     28.15021924      1.02506849 C
  constrain_relaxation .true.
atom       0.67023432      2.18178076      6.53062513 C
  constrain_relaxation .true.
atom       0.67023432     12.98421924      2.68612513 C
  constrain_relaxation .true.
atom      12.94411305     17.34778076      4.86956849 C
  constrain_relaxation .true.
atom      12.28123048     27.26664808      0.23036538 C
  constrain_relaxation .true.
atom       1.33311689      3.06535192      7.32532824 C
  constrain_relaxation .true.
atom       1.33311689     12.10064808      3.48082824 C
  constrain_relaxation .true.
atom      12.28123048     18.23135192      4.07486538 C
  constrain_relaxation .true.
atom      11.23496788     27.71161852      7.06997978 C
  constrain_relaxation .true.
atom       2.37937949      2.62038148      0.48571384 C
  constrain_relaxation .true.
atom       2.37937949     12.54561852      4.33021384 C
  constrain_relaxation .true.
atom      11.23496788     17.78638148      3.22547978 C
  constrain_relaxation .true.
atom      10.88834660     29.02044432      7.04261776 C
  constrain_relaxation .true.
atom       2.72600077      1.31155568      0.51307586 C
  constrain_relaxation .true.
atom       2.72600077     13.85444432      4.35757586 C
  constrain_relaxation .true.
atom      10.88834660     16.47755568      3.19811776 C
  constrain_relaxation .true.
atom      11.54224370     29.97104920      0.17608925 C
  constrain_relaxation .true.
atom       2.07210367      0.36095080      7.37960437 C
  constrain_relaxation .true.
atom       2.07210367     14.80504920      3.53510437 C
  constrain_relaxation .true.
atom      11.54224370     15.52695080      4.02058925 C
  constrain_relaxation .true.
atom      11.19807300      1.00065268      0.15946784 C
  constrain_relaxation .true.
atom       2.41627437     29.33134732      7.39622578 C
  constrain_relaxation .true.
atom       2.41627437     16.16665268      3.55172578 C
  constrain_relaxation .true.
atom      11.19807300     14.16534732      4.00396784 C
  constrain_relaxation .true.
atom      11.83563289      1.93942808      0.95441890 C
  constrain_relaxation .true.
atom       1.77871448     28.39257192      6.60127472 C
  constrain_relaxation .true.
atom       1.77871448     17.10542808      2.75677472 C
  constrain_relaxation .true.
atom      11.83563289     13.22657192      4.79891890 C
  constrain_relaxation .true.
atom      11.55327132      3.36927856      0.90259177 C
  constrain_relaxation .true.
atom       2.06107605     26.96272144      6.65310185 C
  constrain_relaxation .true.
atom       2.06107605     18.53527856      2.80860185 C
  constrain_relaxation .true.
atom      11.55327132     11.79672144      4.74709177 C
  constrain_relaxation .true.
atom      10.64015705      3.92010768     -0.02268087 C
  constrain_relaxation .true.
atom       2.97419033     26.41189232      7.57837449 C
  constrain_relaxation .true.
atom       2.97419033     19.08610768      3.73387449 C
  constrain_relaxation .true.
atom      10.64015705     11.24589232      3.82181913 C
  constrain_relaxation .true.
atom      10.43948157      5.27564476      7.57447827 C
  constrain_relaxation .true.
atom       3.17486581     25.05635524     -0.01878465 C
  constrain_relaxation .true.
atom       3.17486581     20.44164476      3.82571535 C
  constrain_relaxation .true.
atom      10.43948157      9.89035524      3.72997827 C
  constrain_relaxation .true.
atom      11.14334333      6.14586984      0.71514953 C
  constrain_relaxation .true.
atom       2.47100405     24.18613016      6.84054409 C
  constrain_relaxation .true.
atom       2.47100405     21.31186984      2.99604409 C
  constrain_relaxation .true.
atom      11.14334333      9.02013016      4.55964953 C
  constrain_relaxation .true.
atom      12.02214945      5.64296528      1.64075810 C
  constrain_relaxation .true.
atom       1.59219793     24.68903472      5.91493552 C
  constrain_relaxation .true.
atom       1.59219793     20.80896528      2.07043552 C
  constrain_relaxation .true.
atom      12.02214945      9.52303472      5.48525810 C
  constrain_relaxation .true.
atom      12.23385255      4.25891612      1.76094029 C
  constrain_relaxation .true.
atom       1.38049482     26.07308388      5.79475333 C
  constrain_relaxation .true.
atom       1.38049482     19.42491612      1.95025333 C
  constrain_relaxation .true.
atom      12.23385255     10.90708388      5.60544029 C
  constrain_relaxation .true.
# 
# What follows is the current estimated Hessian matrix constructed by the BFGS algorithm.
# This is NOT the true Hessian matrix of the system.
# If you do not want this information here, switch it off using the "hessian_to_restart_geometry" keyword.
# 
trust_radius             0.2000000030
hessian_block                1       1          65.406570          -6.410659          11.833624          -6.410659          53.909123           7.636631          11.833624           7.636631          21.062477
hessian_block                1       2           0.262357           0.002267           0.041825           0.002260           0.099383           0.035916           0.041824           0.035918           0.034392
hessian_block                1       3           0.262357           0.002267           0.041825          -0.002260          -0.099383          -0.035916           0.041824           0.035918           0.034392
hessian_block                1       4          -0.262356          -0.002267          -0.041825           0.002267           0.099389           0.035917          -0.041825          -0.035917          -0.034392
hessian_block                1       5          -0.202742          -0.223710           0.142059          -0.222536          -0.479135           0.201673          -0.066914           0.303990          -0.156166
hessian_block                1       6           0.144411           0.063633           0.034164           0.020355           0.013203           0.019088           0.162991          -0.051221           0.018218
hessian_block                1       7           0.144411           0.063633           0.034164          -0.020355          -0.013203          -0.019088           0.162991          -0.051221           0.018218
hessian_block                1       8          -0.144411          -0.063633          -0.034164           0.020356           0.013205           0.019088          -0.162989           0.051220          -0.018218
hessian_block                1       9           0.066862          -0.116131          -0.003251          -0.146497          -0.017991          -0.008559          -0.158186          -0.040526          -0.044318
hessian_block                1      10          -0.070468           0.107283           0.008085           0.137005          -0.005089           0.021037           0.164044           0.054494           0.037003
hessian_block                1      11          -0.070468           0.107283           0.008085          -0.137005           0.005089          -0.021037           0.164044           0.054494           0.037003
hessian_block                1      12           0.070470          -0.107282          -0.008084           0.137009          -0.005088           0.021037          -0.164049          -0.054494          -0.037003
hessian_block                1      13           1.723703           5.239648           0.488775           0.642767           2.195613           0.152279          -7.166127         -24.996768          -2.170089
hessian_block                1      14          -0.189821           0.016255          -0.029062           0.014012           0.054777           0.044411          -0.129413          -0.001824          -0.016673
hessian_block                1      15          -0.189821           0.016255          -0.029062          -0.014012          -0.054777          -0.044411          -0.129413          -0.001824          -0.016673
hessian_block                1      16           0.189821          -0.016255           0.029062           0.014014           0.054778           0.044411           0.129413           0.001824           0.016673
hessian_block                1      17           0.064194          -0.081533          -0.003362           0.089375           0.086651           0.058282           0.196031          -0.003529           0.023172
hessian_block                1      18          -0.068721           0.070749           0.009713          -0.099674          -0.110424          -0.043881          -0.190037           0.017868          -0.031583
hessian_block                1      19          -0.068721           0.070749           0.009713           0.099674           0.110424           0.043881          -0.190037           0.017868          -0.031583
hessian_block                1      20           0.068725          -0.070749          -0.009712          -0.099674          -0.110422          -0.043881           0.190042          -0.017867           0.031584
hessian_block                1      21           0.185142          -0.024518           0.047757           0.070696           0.013334          -0.056987          -0.156934           0.024469          -0.054411
hessian_block                1      22          -0.185233           0.024407          -0.047664          -0.070694          -0.013327           0.056968           0.156884          -0.024493           0.054449
hessian_block                1      23          -0.185233           0.024407          -0.047664           0.070694           0.013327          -0.056968           0.156884          -0.024493           0.054449
hessian_block                1      24           0.185233          -0.024405           0.047664          -0.070684          -0.013315           0.056969          -0.156883           0.024492          -0.054450
hessian_block                1      25           0.068269          -0.130182          -0.039436           0.072825          -0.041582           0.011405          -0.302376          -0.141471          -0.091274
hessian_block                1      26          -0.068263           0.130186           0.039437          -0.072835           0.041569          -0.011405           0.302371           0.141468           0.091274