#=======================================================
# FHI-aims file: pahs_geometry_fix/DNAPAN.in
# Created using the Atomic Simulation Environment (ASE)
# Tue May 25 14:20:52 2021
#=======================================================
lattice_vector 8.1667700030018171 0.0000000000000000 -0.0612920718340157 
lattice_vector 0.0000000000000024 15.0000000000000000 0.0000000000000009 
lattice_vector 0.0000000000000000 0.0000000000000000 15.6410000000000000 
atom 0.3046205211119702 14.7569999999999997 4.1457070057205918 H
atom 7.8621494818898494 0.2430000000000000 11.4340009224453940 H
atom 7.8621494818898503 7.2569999999999997 3.6135009224453936 H
atom 0.3046205211119690 7.7430000000000003 11.9662070057205909 H
atom 4.7604102347497603 10.6364999999999998 6.2503907513279522 H
atom 3.4063597682520590 4.3635000000000002 9.3293171768380319 H
atom 3.4063597682520586 3.1365000000000003 1.5088171768380323 H
atom 4.7604102347497603 11.8635000000000002 14.0708907513279531 H
atom 0.5038897091852145 14.8335000000000008 6.3120540791678419 H
atom 7.6628802938166052 0.1665000000000000 9.2676538489981422 H
atom 7.6628802938166061 7.3334999999999999 1.4471538489981435 H
atom 0.5038897091852134 7.6665000000000001 14.1325540791678428 H
atom 4.7375432787413558 12.5790000000000006 7.2609709691290885 H
atom 3.4292267242604635 2.4209999999999998 8.3187369590368974 H
atom 3.4292267242604639 5.0790000000000006 0.4982369590368972 H
atom 4.7375432787413558 9.9209999999999994 15.0814709691290894 H
atom 0.4312054561584961 0.8850000000000000 4.0133725786071635 C
atom 7.7355645468433245 14.1149999999999984 11.5663353495588215 C
atom 7.7355645468433236 8.3850000000000016 3.7458353495588210 C
atom 0.4312054561584970 6.6150000000000002 11.8338725786071652 C
atom 4.8151275937698736 10.0815000000000001 7.2369271944466655 C
atom 3.3516424092319466 4.9185000000000008 8.3427807337193212 C
atom 3.3516424092319461 2.5815000000000001 0.5222807337193202 C
atom 4.8151275937698736 12.4184999999999999 15.0574271944466638 C
atom 5.8555740921523043 9.2009999999999987 7.4089900844950112 C
atom 2.3111959108495150 5.7990000000000004 8.1707178436709729 C
atom 2.3111959108495146 1.7010000000000001 0.3502178436709737 C
atom 5.8555740921523043 13.2990000000000013 15.2294900844950121 C
atom 5.8572074461529047 8.2949999999999999 8.4835145260806453 C
atom 2.3095625568489146 6.7050000000000001 7.0961934020853406 C
atom 2.3095625568489138 0.7949999999999999 14.9166934020853397 C
atom 5.8572074461529056 14.2050000000000001 0.6630145260806448 C
atom 4.7685770047527614 8.2335000000000012 9.3003244592561192 C
atom 3.3981929982490571 6.7664999999999997 6.2793834689098667 C
atom 3.3981929982490562 0.7335000000000000 14.0998834689098658 C
atom 4.7685770047527631 14.2664999999999988 1.4798244592561192 C
atom 2.4826980809125536 8.9160000000000004 9.9118381101624600 C
atom 5.6840719220892648 6.0840000000000005 5.6678698180035250 C
atom 5.6840719220892639 1.4159999999999999 13.4883698180035250 C
atom 2.4826980809125545 13.5839999999999996 2.0913381101624600 C
atom 1.3875342235100103 9.6539999999999999 9.6744936769954002 C
atom 6.7792357794918088 5.3460000000000001 5.9052142511705847 C
atom 6.7792357794918079 2.1539999999999999 13.7257142511705847 C
atom 1.3875342235100108 12.8460000000000001 1.8539936769954015 C
atom 0.2425530690891558 11.5439999999999987 8.5647553254665301 C
atom 7.9242169339126640 3.4560000000000000 7.0149526026994549 C
atom 7.9242169339126640 4.0440000000000005 14.8354526026994549 C
atom 0.2425530690891557 10.9560000000000013 0.7442553254665304 C
atom 0.2376530070873549 12.6120000000000001 7.7389473007096310 C
atom 7.9291169959144643 2.3879999999999999 7.8407606274563539 C
atom 7.9291169959144652 5.1120000000000001 0.0202606274563545 C
atom 0.2376530070873545 9.8879999999999999 15.5594473007096301 C
atom 1.4618518305373274 14.2140000000000004 6.3455311191417119 C
atom 6.7049181724644917 0.7860000000000000 9.2341768090242731 C
atom 6.7049181724644926 6.7140000000000004 1.4136768090242735 C
atom 1.4618518305373265 8.2859999999999996 14.1660311191417119 C
atom 1.5908867965847542 1.6125000000000000 4.3737967044067334 C
atom 6.5758832064170649 13.3874999999999993 11.2059112237592515 C
atom 6.5758832064170649 9.1125000000000007 3.3854112237592511 C
atom 1.5908867965847548 5.8875000000000002 12.1942967044067334 C
atom 7.5705957927826848 1.4969999999999999 3.2528178494098676 C
atom 0.5961742102191349 13.5030000000000001 12.3268900787561169 C
atom 0.5961742102191341 8.9969999999999999 4.5063900787561169 C
atom 7.5705957927826857 6.0030000000000001 11.0733178494098681 C
atom 1.7117549926291813 2.9535000000000000 3.9161723817435901 C
atom 6.4550150103726383 12.0465000000000000 11.6635355464223949 C
atom 6.4550150103726383 10.4535000000000000 3.8430355464223944 C
atom 1.7117549926291815 4.5465000000000000 11.7366723817435901 C
atom 2.7105509639963028 1.0154999999999998 5.0833154613582900 C
atom 5.4562190390055170 13.9845000000000006 10.4963924668076949 C
atom 5.4562190390055161 8.5154999999999994 2.6758924668076944 C
atom 2.7105509639963037 6.4845000000000006 12.9038154613582918 C
atom 3.9363831414468762 1.6859999999999999 5.0459617213760044 C
atom 4.2303868615549431 13.3140000000000001 10.5337462067899814 C
atom 4.2303868615549431 9.1859999999999999 2.7132462067899801 C
atom 3.9363831414468766 5.8140000000000001 12.8664617213760053 C
atom 2.6427667729713904 14.7675000000000001 5.8314639855545130 C
atom 5.5240032300304289 0.2325000000000000 9.7482439426114720 C
atom 5.5240032300304298 7.2675000000000001 1.9277439426114724 C
atom 2.6427667729713895 7.7324999999999990 13.6519639855545130 C
atom 3.8612488574192612 14.1240000000000006 6.2149083084368781 C
atom 4.3055211455825582 0.8760000000000000 9.3647996197291068 C
atom 4.3055211455825591 6.6239999999999997 1.5442996197291075 C
atom 3.8612488574192603 8.3759999999999994 14.0354083084368781 C
atom 2.6517502199746916 12.2789999999999999 7.2860095642754965 C
atom 5.5150197830271273 2.7210000000000001 8.2936983638904902 C
atom 5.5150197830271281 4.7789999999999999 0.4731983638904895 C
atom 2.6517502199746916 10.2210000000000001 15.1065095642754947 C
atom 1.4438849365307234 13.0350000000000001 7.0854852616997466 C
atom 6.7228850664710960 1.9650000000000001 8.4942226664662392 C
atom 6.7228850664710968 5.5350000000000001 0.6737226664662387 C
atom 1.4438849365307229 9.4649999999999999 14.9059852616997457 C
atom 2.5970328609545796 11.0294999999999987 8.0324959211567837 C
atom 5.5697371420472406 3.9704999999999999 7.5472120070092021 C
atom 5.5697371420472406 3.5295000000000001 15.3677120070092013 C
atom 2.5970328609545796 11.4705000000000013 0.2119959211567837 C
atom 1.4218346575226182 10.7445000000000004 8.7404685502936985 C
atom 6.7449353454792016 4.2555000000000005 6.8392393778722864 C
atom 6.7449353454792016 3.2444999999999999 14.6597393778722864 C
atom 1.4218346575226184 11.7554999999999996 0.9199685502936985 C
atom 3.7060802273622264 10.1009999999999991 8.1274030578017236 C
atom 4.4606897756395938 4.8990000000000000 7.4523048703642614 C
atom 4.4606897756395929 2.6010000000000000 15.2728048703642614 C
atom 3.7060802273622264 12.3990000000000009 0.3069030578017244 C
atom 7.6612469398160057 2.8560000000000003 2.9033432074125098 C
atom 0.5055230631858144 12.1440000000000001 12.6763647207534742 C
atom 0.5055230631858141 10.3559999999999999 4.8558647207534751 C
atom 7.6612469398160057 4.6440000000000001 10.7238432074125107 C
atom 3.6627963463463162 9.0960000000000001 9.1350083057824438 C
atom 4.5039736566555026 5.9039999999999999 6.4446996223835411 C
atom 4.5039736566555018 1.5959999999999999 14.2651996223835411 C
atom 3.6627963463463171 13.4039999999999999 1.3145083057824447 C
atom 0.6312913212320410 3.5535000000000001 3.2517183228472306 C
atom 7.5354786817697779 11.4465000000000003 12.3279896053187539 C
atom 7.5354786817697779 11.0534999999999997 4.5074896053187548 C
atom 0.6312913212320411 3.9464999999999999 11.0722183228472311 C
atom 2.9400372010806546 3.6450000000000000 4.0555435541397546 C
atom 5.2267328019211652 11.3550000000000004 11.5241643740262294 C
atom 5.2267328019211652 11.1449999999999996 3.7036643740262307 C
atom 2.9400372010806546 3.8550000000000000 11.8760435541397555 C
atom 4.0303009964813974 3.0150000000000001 4.5369243625499136 C
atom 4.1364690065204215 11.9850000000000012 11.0427835656160713 C
atom 4.1364690065204215 10.5149999999999988 3.2222835656160718 C
atom 4.0303009964813974 4.4849999999999994 12.3574243625499136 C
atom 5.1352649778875428 1.0485000000000000 5.5093222452307709 C
atom 3.0315050251142766 13.9515000000000011 10.0703856829352141 C
atom 3.0315050251142757 8.5484999999999989 2.2498856829352141 C
atom 5.1352649778875437 6.4514999999999993 13.3298222452307709 C
atom 5.1091313138779402 14.7929999999999993 6.0037739798606404 C
atom 3.0576386891238805 0.2070000000000000 9.5759339483053445 C
atom 3.0576386891238818 7.2930000000000001 1.7554339483053449 C
atom 5.1091313138779384 7.7070000000000007 13.8242739798606404 C
atom 3.8383819014108562 12.8970000000000002 6.8907711262380138 C
atom 4.3283881015909635 2.1029999999999998 8.6889368019279711 C
atom 4.3283881015909644 5.3970000000000002 0.8684368019279720 C
atom 3.8383819014108553 9.6029999999999998 14.7112711262380138 C
atom 0.6675407416339771 4.3881588791914989 3.0089622005612733 H
atom 3.0275562138973493 4.4829778674512699 3.8386714350063516 H
atom 5.9118192984136400 1.4402587735899945 5.4896130953882460 H
atom 4.7793615897899455 3.4571562811163488 4.5194300600028230 H
atom 5.8768445892634888 14.4244595612482307 6.1818028308973325 H
atom 0.6718846903121962 9.4306494590668741 10.1159234919134988 H
atom 2.4287844237768650 8.3332828374529893 10.5556036156436210 H
atom 4.7796410843184551 7.6374020313885929 9.9339211748100436 H
atom 6.5122355054635355 9.2171192281114305 6.8385201389648458 H
atom 6.5333032931594870 7.7713075274024055 8.6433287926686742 H
atom 6.8705046297613963 1.0292417839438603 3.0337867676623689 H
atom 7.0073242876017501 3.2694821593628030 2.5054516784630421 H
atom 7.6425156117976902 13.0177611188286928 7.5692346087169513 H
atom 7.6629487149294810 11.3733556988189513 8.9166288880289386 H
atom 0.5242543912041331 1.9822388811713088 8.0104733194490372 H
atom 0.5038212880723395 3.6266443011810443 6.6630790401370401 H
atom 1.2962653732404197 13.9707582160561472 12.5459211605036174 H
atom 1.1594457154000730 11.7305178406371944 13.0742562497029340 H
atom 2.2899254137383305 0.5755404387517695 9.3979050972686515 H
atom 7.4948853126896244 5.5693505409331303 5.4637844362524834 H
atom 1.6545344975382814 5.7828807718885722 8.7411877892011294 H
atom 3.3871289186833593 7.3625979686114036 5.6457867533559387 H
atom 5.7379855792249570 6.6667171625470090 5.0241043125223621 H
atom 1.6334667098423352 7.2286924725976016 6.9363791354973188 H
atom 5.1392137891044740 10.5170221325487283 11.7410364931596298 H
atom 7.4992292613678426 10.6118411208085011 12.5707457276047094 H
atom 3.3874084132118716 11.5428437188836526 11.0602778681631690 H
atom 2.2549507045881776 13.5597412264100150 10.0900948327777478 H
atom 1.2962653732404190 8.5292417839438581 4.7254211605036174 H
atom 1.1594457154000728 10.7694821593628021 5.2537562497029429 H
atom 0.5242543912041363 5.5177611188286901 0.1899733194490361 H
atom 0.5038212880723383 3.8733556988189557 14.4835790401370375 H
atom 5.1392137891044731 11.9829778674512699 3.9205364931596338 H
atom 7.4992292613678426 11.8881588791914972 4.7502457276047139 H
atom 2.2549507045881771 8.9402587735899921 2.2695948327777407 H
atom 3.3874084132118729 10.9571562811163528 3.2397778681631619 H
atom 2.2899254137383331 6.9244595612482298 1.5774050972686526 H
atom 1.6545344975382865 1.7171192281114251 0.9206877892011394 H
atom 7.4948853126896262 1.9306494590668781 13.2842844362524826 H
atom 3.3871289186833602 0.1374020313885979 13.4662867533559378 H
atom 5.7379855792249446 0.8332828374529885 12.8446043125223675 H
atom 1.6334667098423323 0.2713075274024058 14.7568791354973055 H
atom 0.6718846903122017 13.0693505409331276 2.2954234919135090 H
atom 2.4287844237768668 14.1667171625470107 2.7351036156436215 H
atom 4.7796410843184631 14.8625979686114107 2.1134211748100427 H
atom 6.5333032931594834 14.7286924725976007 0.8228287926686764 H
atom 0.6675407416339767 3.1118411208085033 10.8294622005612631 H
atom 3.0275562138973493 3.0170221325487283 11.6591714350063640 H
atom 4.7793615897899455 4.0428437188836517 12.3399300600028212 H
atom 5.9118192984136444 6.0597412264100070 13.3101130953882389 H
atom 5.8768445892634897 8.0755404387517729 14.0023028308973281 H
atom 6.5122355054635408 13.2828807718885713 14.6590201389648556 H
atom 7.6629487149294810 11.1266443011810523 1.0961288880289375 H
atom 6.8705046297614025 6.4707582160561401 10.8542867676623711 H
atom 7.0073242876017501 4.2305178406371979 10.3259516784630403 H
atom 7.6425156117976858 9.4822388811713072 15.3897346087169478 H
