#=======================================================
# FHI-aims file: pahs_geometry_fix/SANQII.in
# Created using the Atomic Simulation Environment (ASE)
# Tue May 25 14:20:53 2021
#=======================================================
lattice_vector 0.0000000000000008 5.0622999999999996 0.0000000000000003 
lattice_vector -0.0000000000000000 -0.0000000000000000 15.7245000000000008 
lattice_vector 17.7092438983634253 -0.0000000000000000 -4.5987228779605616 
atom 6.0211429254435647 4.1004629999999995 10.3870542214934094 H
atom 11.6881009729198606 1.5693130000000000 0.7387229005460298 H
atom 3.8960336576399550 4.5054469999999993 9.5236959668486794 H
atom 13.8132102407234729 1.9742970000000000 1.6020811551907632 H
atom 5.3127731695090281 1.8730509999999998 13.2441681366118349 H
atom 12.3964707288543980 4.4042009999999996 -2.1183910145723925 H
atom 6.7295126813781021 0.2531150000000000 12.4045353063749868 H
atom 10.9797312169853232 2.7842650000000000 -1.2787581843355480 H
atom 1.7709243898363427 0.6580990000000000 9.6038077122039471 H
atom 15.9383195085270835 3.1892489999999998 1.5219694098354957 H
atom 3.1876639017054162 3.0880029999999996 13.3242798819671009 H
atom 14.5215799966580086 0.5568529999999999 -2.1985027599276594 H
atom 17.7092438983634253 1.0124599999999999 4.2069971220394393 H
atom 0.0000000000000006 3.5436099999999993 6.9187800000000017 H
atom 15.5841346305598147 1.4174439999999999 3.3436388673947075 H
atom 2.1251092678036114 3.9485939999999999 7.7821382546447344 H
atom 14.2382320942841947 2.9867569999999994 4.3221218061197089 H
atom 3.4710118040792315 0.4556069999999999 6.8036553159197304 H
atom 14.8757648746252773 4.2017089999999993 6.2007527825131321 H
atom 2.8334790237381484 1.6705589999999999 4.9250243395263116 H
atom 15.5841346305598147 0.1518690000000000 7.5892538673947074 H
atom 2.1251092678036114 2.6830189999999998 3.5365232546447327 H
atom 16.2925043864943504 1.3161980000000000 9.4494899522762861 H
atom 1.4167395118690744 3.8473479999999998 1.6762871697631556 H
atom 0.7083697559345372 0.9112139999999999 15.0688160848815773 H
atom 17.0008741424288878 3.4423640000000000 -3.9430389628421381 H
atom 2.1251092678036119 4.3535779999999997 14.0719382546447367 H
atom 15.5841346305598147 1.8224279999999997 -2.9461611326052930 H
atom 7.2607899983290043 0.4049840000000000 8.6499386200361705 H
atom 10.4484539000344210 2.9361339999999996 2.4758385020032692 H
atom 8.1462521932471752 0.0506230000000000 6.3758174761381454 H
atom 9.5629917051162501 2.5817729999999997 4.7499596459012983 H
atom 4.7814958525581259 3.2398719999999996 7.2495748229506516 H
atom 12.9277480458053002 0.7087220000000000 3.8762022990887921 H
atom 5.6669580474762968 1.9742970000000000 9.0638236790526214 H
atom 12.0422858508871311 4.5054469999999993 2.0619534429868183 H
atom 8.1462521932471752 0.5568529999999999 4.0171424761381438 H
atom 9.5629917051162501 3.0880029999999996 7.1086346459012972 H
atom 4.7814958525581259 3.7967249999999995 4.8908998229506500 H
atom 12.9277480458053002 1.2655749999999999 6.2348772990887911 H
atom 8.6775295101980774 0.3037380000000000 2.3067307897993250 H
atom 9.0317143881653479 2.8348879999999999 8.8190463322401147 H
atom 9.5629917051162519 5.0116769999999997 0.0326096459012974 H
atom 8.1462521932471752 2.4805269999999999 11.0931674761381416 H
atom 8.6775295101980774 1.2149519999999998 -1.6243942102006750 H
atom 9.0317143881653479 3.7461019999999996 12.7501713322401162 H
atom 6.9066051203617373 2.8348879999999999 -1.1645219224046186 H
atom 10.8026387780016897 0.3037380000000000 12.2902990444440601 H
atom 5.6669580474762968 4.1004629999999995 -0.9998563209473793 H
atom 12.0422858508871311 1.5693130000000000 12.1256334429868176 H
atom 3.8960336576399537 0.6580990000000000 -0.5399840331513233 H
atom 13.8132102407234729 3.1892489999999998 11.6657611551907614 H
atom 3.1876639017054167 0.9618369999999999 1.6881498819670997 H
atom 14.5215799966580086 3.4929869999999994 9.4376272400723416 H
atom 4.0731260966235885 4.7585619999999995 3.5023987380690720 H
atom 13.6361178017398377 2.2274119999999997 7.6233783839703682 H
atom 5.4013193890008457 4.7199366509999994 10.8782240222220317 C
atom 12.3079245093625804 2.1887866509999996 0.2475530998174106 C
atom 4.1616723161154052 5.0066146999999992 10.3038381236792702 C
atom 13.5475715822480218 2.4754646999999999 0.8219389983601711 C
atom 5.0117160232368487 1.3870701999999999 12.5361214255371642 C
atom 12.6975278751265765 3.9182201999999999 -1.4103443034977221 C
atom 5.8617597303582940 0.4302955000000000 11.9537192273950570 C
atom 11.8474841680051330 2.9614454999999995 -0.8279421053556152 C
atom 3.7366504625546830 1.6351228999999998 11.9866574727503234 C
atom 13.9725934358087436 4.1662728999999992 -0.8608803507108820 C
atom 3.3116286089939608 0.9061516999999999 10.8705158218213747 C
atom 14.3976152893694636 3.4373016999999999 0.2552613002180640 C
atom 2.0365630483117938 1.1542044000000000 10.3210518690345374 C
atom 15.6726808500516324 3.6853543999999996 0.8047252530049049 C
atom 2.8866067554332386 2.5969598999999999 12.5690596708924307 C
atom 14.8226371429301871 0.0658099000000000 -1.4432825488529892 C
atom 1.6292504386494355 2.8450126000000000 12.0149969952276301 C
atom 16.0799934597139895 0.3138626000000000 -0.8892198731881888 C
atom 1.1865193411903501 2.1211036999999999 10.8877295671766436 C
atom 16.5227245571730776 4.6522537000000002 0.2380475548627956 C
atom 16.7883632156485270 3.3309933999999997 6.3173462116933905 C
atom 0.9208806827148982 0.7998434000000000 4.8084309103460514 C
atom 17.6206976788716076 2.3640941000000000 5.7395427364292431 C
atom 0.0885462194918179 4.8952440999999993 5.3862343856101971 C
atom 17.1956758253108859 1.6351228999999998 4.6234010855002943 C
atom 0.5135680730525400 4.1662728999999992 6.5023760365391450 C
atom 15.9383195085270835 1.8831755999999997 4.0693384098354972 C
atom 1.7709243898363434 4.4143255999999997 7.0564387122039438 C
atom 15.0882758014056382 2.8399502999999999 4.6517406079776027 C
atom 2.6209680969577867 0.3088003000000000 6.4740365140618383 C
atom 15.5310068988647245 3.5739837999999997 5.7475590360285898 C
atom 2.1782369994987012 1.0428337999999999 5.3782180860108513 C
atom 0.7792067315279914 3.8068495999999996 12.5816746933697363 C
atom 16.9300371668354330 1.2756995999999998 -1.4558975713302955 C
atom 17.2133850692092487 4.0549023000000002 7.4334878626223375 C
atom 0.4958588291541761 1.5237522999999997 3.6922892594171048 C
atom 16.3810506059861680 5.0167392999999993 8.0112913378864832 C
atom 1.3281932923772573 2.4855892999999996 3.1144857841529587 C
atom 16.8237817034452526 0.6884728000000000 9.1228342659374686 C
atom 0.8854621949181719 3.2196227999999998 2.0029428561019720 C
atom 0.3718941218656320 0.4252332000000000 14.2913443195628318 C
atom 17.3373497764977920 2.9563831999999994 -3.1655671975233886 C
atom 1.2042285850887138 4.5358207999999998 13.6978163442986833 C
atom 16.5050153132747148 2.0046708000000000 -2.5720392222592428 C
atom 6.9597328520568267 0.8808401999999999 7.8789939089614993 C
atom 10.7495110463065995 3.4119902000000000 3.2467832130779408 C
atom 7.4555916812110015 0.6732859000000000 6.5866166683786069 C
atom 10.2536522171524229 3.2044358999999996 4.5391604536608368 C
atom 5.4544471206959351 2.5868352999999997 7.0433743535881481 C
atom 12.2547967776674902 0.0556853000000000 4.0824027684512929 C
atom 5.9680151937484753 1.8426771999999998 8.1050733901272913 C
atom 11.7412287046149526 4.3738272000000000 3.0207037319121479 C
atom 5.9325967059517479 2.3792809999999998 5.7398713358832127 C
atom 11.7766471924116800 4.9104309999999991 5.3859057861562283 C
atom 6.9243143642601002 1.4225063000000000 5.5137918547174207 C
atom 10.7849295341033269 3.9536563000000000 5.6119852673220203 C
atom 7.4201731934142749 1.2149519999999998 4.2056901141345264 C
atom 10.2890707049491485 3.7461019999999996 6.9200870079049173 C
atom 5.4190286328992077 3.1285013999999998 4.6781722993440695 C
atom 12.2902152654642158 0.5973513999999999 6.4476048226953724 C
atom 5.8971782181550214 2.9209470999999994 3.3746692816391342 C
atom 11.8120656802084056 0.3897971000000000 7.7511078404003069 C
atom 6.8888958764633728 1.9641723999999998 3.1328653004733429 C
atom 10.8203480219000525 4.4953224000000001 7.9929118215661008 C
atom 6.8357681447682825 2.5210253999999996 0.7565374691072242 C
atom 10.8734757535951445 5.0521753999999994 10.3692396529322153 C
atom 7.3670454617191847 1.7667426999999998 1.8136377827684071 C
atom 10.3421984366442405 4.2978926999999993 9.3121393392710328 C
atom 8.3587631200275361 0.8049056999999999 1.5561093016026153 C
atom 9.3504807783358892 3.3360556999999997 9.5696678204368251 C
atom 8.8369127052833498 0.6176005999999999 0.2683307838976808 C
atom 8.8723311930800772 3.1487505999999996 10.8574463381417612 C
atom 8.3056353883324459 1.3718832999999999 -0.7887695297635030 C
atom 9.4036085100309794 3.9030332999999997 11.9145466518029455 C
atom 7.3139177300240945 2.3286579999999999 -0.5469655485977112 C
atom 10.3953261683393308 4.8598079999999992 11.6727426706371542 C
atom 5.3659009012041183 3.6752297999999994 2.3175689679779499 C
atom 12.3433429971593061 1.1440797999999999 8.8082081540614912 C
atom 5.8440504864599312 3.4778001000000001 1.0140659502730156 C
atom 11.8651934119034959 0.9466500999999999 10.1117111717664230 C
atom 5.3127731695090281 4.2422073999999999 -0.0430343633881680 C
atom 12.3964707288543980 1.7110574000000001 11.1688114854276108 C
atom 4.3210555112006759 0.1366821000000000 0.2302186177776231 C
atom 13.3881883871627494 2.6678321000000000 10.8955585042618175 C
atom 3.8429059259448635 0.3189249000000000 1.5337216354825587 C
atom 13.8663379724185631 2.8500748999999996 9.5920554865568821 C
atom 4.3741832428957670 4.6066929999999999 2.5750974491437417 C
atom 13.3350606554676592 2.0755429999999997 8.5506796728957006 C
