#=======================================================
# FHI-aims file: pahs_geometry_fix/DBPHEN02.in
# Created using the Atomic Simulation Environment (ASE)
# Tue May 25 14:20:52 2021
#=======================================================
lattice_vector 5.7977838030644024 0.0000000000000000 -0.4471330595293606 
lattice_vector 0.0000000000000023 14.1780000000000008 0.0000000000000009 
lattice_vector 0.0000000000000000 0.0000000000000000 17.4980000000000011 
atom 0.3536648119869297 6.9897540000000005 2.2124688833687096 H
atom 5.4441189910774748 7.1882460000000004 14.8383980571019318 H
atom 5.4441189910774765 14.0787540000000000 6.0893980571019313 H
atom 0.3536648119869286 0.0992460000000000 10.9614688833687097 H
atom 0.6029695155186992 8.2090619999999994 0.2334661618089470 H
atom 5.1948142875457055 5.9689380000000005 16.8174007786616926 H
atom 5.1948142875457046 1.1200620000000001 8.0684007786616938 H
atom 0.6029695155186999 13.0579380000000018 8.9824661618089490 H
atom 2.6379916303943047 9.3291240000000002 17.2420604579141425 H
atom 3.1597921726701004 4.8488760000000006 -0.1911935174435012 H
atom 3.1597921726700999 2.2401240000000002 8.5578064825564990 H
atom 2.6379916303943052 11.9378760000000010 8.4930604579141420 H
atom 4.4121134741320125 9.2724120000000010 1.4445277416981572 H
atom 1.3856703289323931 4.9055879999999998 15.6063391987724849 H
atom 1.3856703289323926 2.1834120000000001 6.8573391987724834 H
atom 4.4121134741320125 11.9945880000000002 10.1935277416981585 H
atom 5.2064098551518354 8.8896060000000006 3.6055165125426352 H
atom 0.5913739479125699 5.2883940000000003 13.4453504279280072 H
atom 0.5913739479125694 1.8006060000000002 4.6963504279280057 H
atom 5.2064098551518354 12.3773940000000007 12.3545165125426362 H
atom 4.6556203938607164 7.8971460000000011 5.7652521531979239 H
atom 1.1421634092036885 6.2808540000000006 11.2856147872727171 H
atom 1.1421634092036876 0.8081460000000000 2.5366147872727161 H
atom 4.6556203938607172 13.3698540000000001 14.5142521531979245 H
atom 3.2815456325344523 6.8196180000000002 7.3935486883063826 H
atom 2.5162381705299519 7.3583820000000006 9.6573182521642575 H
atom 2.5162381705299528 13.9086180000000006 0.9083182521642584 H
atom 3.2815456325344514 0.2693820000000000 16.1425486883063840 H
atom 1.2465235176588474 5.6286660000000008 7.7954643922011888 H
atom 4.5512602854055579 8.5493340000000000 9.2554025482694531 H
atom 4.5512602854055579 12.7176660000000012 0.5064025482694527 H
atom 1.2465235176588467 1.4603340000000000 16.5444643922011885 H
atom 5.1368364495150614 4.4802480000000005 6.7255261092569869 H
atom 0.6609473535493434 9.6977520000000013 10.3253408312136532 H
atom 0.6609473535493438 11.5692480000000000 1.5763408312136538 H
atom 5.1368364495150605 2.6087520000000000 15.4745261092569883 H
atom 3.8497284452347640 3.4594320000000001 4.8475156484725046 H
atom 1.9480553578296411 10.7185680000000012 12.2033512919981355 H
atom 1.9480553578296411 10.5484320000000000 3.4543512919981354 H
atom 3.8497284452347640 3.6295680000000003 13.5965156484725060 H
atom 3.6641993635367029 2.6938200000000001 2.6745739063774447 H
atom 2.1335844395277017 11.4841800000000021 14.3762930340931963 H
atom 2.1335844395277017 9.7828199999999992 5.6272930340931966 H
atom 3.6641993635367034 4.3951799999999999 11.4235739063774453 H
atom 4.6440248262545865 2.3960820000000003 0.4817504193169824 H
atom 1.1537589768098182 11.7819180000000010 16.5691165211536600 H
atom 1.1537589768098178 9.4850820000000002 7.8201165211536585 H
atom 4.6440248262545873 4.6929180000000006 9.2307504193169834 H
atom 0.9160498408841762 3.4736100000000003 0.4192969765943613 H
atom 4.8817339621802285 10.7043900000000001 16.6315699638762808 H
atom 4.8817339621802285 10.5626100000000012 7.8825699638762794 H
atom 0.9160498408841762 3.6153900000000001 9.1682969765943625 H
atom 1.8668863845867385 4.8772320000000002 2.0607711548315462 H
atom 3.9308974184776666 9.3007680000000015 14.9900957856390953 H
atom 3.9308974184776670 11.9662319999999998 6.2410957856390947 H
atom 1.8668863845867381 2.2117680000000002 10.8097711548315463 H
atom 1.2007210256146388 7.3867380000000011 2.0299061433714702 C
atom 4.5970627774497661 6.7912619999999997 15.0209607970991712 C
atom 4.5970627774497652 0.2977380000000001 6.2719607970991698 C
atom 1.2007210256146399 13.8802620000000001 10.7789061433714703 C
atom 1.3601600801989102 8.1183227999999996 0.8802399842344126 C
atom 4.4376237228654940 6.0596772000000003 16.1706269562362301 C
atom 4.4376237228654931 1.0293228000000001 7.4216269562362278 C
atom 1.3601600801989111 13.1486772000000016 9.6292399842344132 C
atom 2.5608811058135479 8.7846888000000014 0.6249073276058820 C
atom 3.2369026972508568 5.3933112000000003 16.4259596128647587 C
atom 3.2369026972508563 1.6956888000000001 7.6769596128647590 C
atom 2.5608811058135488 12.4823111999999998 9.3739073276058829 C
atom 3.5389672333905131 8.7747641999999999 1.5643599804632788 C
atom 2.2588165696738920 5.4032358000000000 15.4865069600073628 C
atom 2.2588165696738915 1.6857642000000002 6.7375069600073623 C
atom 3.5389672333905140 12.4922358000000013 10.3133599804632787 C
atom 3.3853259626093060 8.0743710000000011 2.7783216065408070 C
atom 2.4124578404550987 6.1036290000000006 14.2725453339298340 C
atom 2.4124578404550978 0.9853710000000001 5.5235453339298335 C
atom 3.3853259626093068 13.1926290000000002 11.5273216065408075 C
atom 4.3408007333543193 8.2317467999999998 3.8210064783303683 C
atom 1.4569830697100854 5.9462532000000001 13.2298604621402713 C
atom 1.4569830697100847 1.1427468000000001 4.4808604621402726 C
atom 4.3408007333543202 13.0352532000000014 12.5700064783303702 C
atom 4.0816397973573402 7.7440236000000011 5.0361067260913313 C
atom 1.7161440057070640 6.4339763999999997 12.0147602143793115 C
atom 1.7161440057070629 0.6550236000000000 3.2657602143793096 C
atom 4.0816397973573411 13.5229764000000010 13.7851067260913318 C
atom 2.9359977178718144 6.9443844000000006 5.3046896186543329 C
atom 2.8617860851925903 7.2336156000000003 11.7461773218163081 C
atom 2.8617860851925911 14.0333844000000010 2.9971773218163089 C
atom 2.9359977178718131 0.1446156000000000 14.0536896186543334 C
atom 2.6350927384927720 6.5516538000000004 6.6279972244439067 C
atom 3.1626910645716326 7.6263462000000013 10.4228697160267352 C
atom 3.1626910645716335 13.6406538000000008 1.6738697160267348 C
atom 2.6350927384927711 0.5373462000000001 15.3769972244439064 C
atom 1.5300351456286969 5.8498428000000002 6.9074485855902026 C
atom 4.2677486574357086 8.3281572000000015 10.1434183548804402 C
atom 4.2677486574357086 12.9388427999999998 1.3944183548804387 C
atom 1.5300351456286962 1.2391572000000002 15.6564485855902014 C
atom 0.7125476293966159 5.3096610000000002 5.8611211469838427 C
atom 5.0852361736677887 8.8683389999999989 11.1897457934868001 C
atom 5.0852361736677887 12.3986610000000024 2.4407457934867987 C
atom 0.7125476293966153 1.7793390000000000 14.6101211469838415 C
atom 5.3704871367785572 4.5156930000000006 5.7101206469579537 C
atom 0.4272966662858480 9.6623070000000002 11.3407462935126873 C
atom 0.4272966662858483 11.6046930000000010 2.5917462935126867 C
atom 5.3704871367785563 2.5733070000000002 14.4591206469579543 C
atom 4.6463439397758126 3.9457374000000001 4.7510835660931710 C
atom 1.1514398632885918 10.2322626000000003 12.2997833743774692 C
atom 1.1514398632885920 11.0347374000000009 3.5507833743774699 C
atom 4.6463439397758126 3.1432626000000004 13.5000835660931724 C
atom 5.0939328493723854 3.9599154000000003 3.3832172938975043 C
atom 0.7038509536920201 10.2180846000000010 13.6676496465731372 C
atom 0.7038509536920202 11.0489154000000003 4.9186496465731366 C
atom 5.0939328493723854 3.1290846000000001 12.1322172938975044 C
atom 4.4932824473749129 3.1503516000000005 2.3866594788647459 C
atom 1.3045013556894924 11.0276484000000021 14.6642074616058959 C
atom 1.3045013556894922 10.2393515999999991 5.9152074616058945 C
atom 4.4932824473749129 3.9386483999999999 11.1356594788647474 C
atom 5.0463910221872563 3.0099893999999998 1.1628879849856448 C
atom 0.7513927808771483 11.1680106000000006 15.8879789554849964 C
atom 0.7513927808771482 10.0989894000000007 7.1389789554849958 C
atom 5.0463910221872563 4.0790106000000002 9.9118879849856452 C
atom 0.4504878014981047 3.6536705999999999 1.3091041612745689 C
atom 5.3472960015663000 10.5243293999999992 15.7417627791960726 C
atom 5.3472960015663000 10.7426706000000021 6.9927627791960720 C
atom 0.4504878014981046 3.4353294000000001 10.0581041612745690 C
atom 1.0308459601848514 4.4774124000000004 2.2372349420156801 C
atom 4.7669378428795541 9.7005876000000004 14.8136319984549623 C
atom 4.7669378428795541 11.5664124000000008 6.0646319984549608 C
atom 1.0308459601848512 2.6115876000000000 10.9862349420156793 C
atom 0.4522271366390241 4.7085138000000004 3.5014694213567106 C
atom 5.3455566664253809 9.4694862000000004 13.5493975191139313 C
atom 5.3455566664253809 11.7975138000000008 4.8003975191139308 C
atom 0.4522271366390238 2.3804862000000000 12.2504694213567102 C
atom 1.0714304468063025 5.5577760000000005 4.5088450105989750 C
atom 4.7263533562581026 8.6202240000000003 12.5420219298716678 C
atom 4.7263533562581026 12.6467760000000009 3.7930219298716663 C
atom 1.0714304468063018 1.5312240000000001 13.2578450105989738 C
atom 2.0727077095955249 6.5644140000000011 4.2496459312182546 C
atom 3.7250760934688798 7.6135860000000006 12.8012210092523873 C
atom 3.7250760934688807 13.6534139999999997 4.0522210092523867 C
atom 2.0727077095955240 0.5245860000000000 12.9986459312182543 C
atom 2.2211309749539740 7.2945810000000000 2.9993409248943026 C
atom 3.5766528281104306 6.8834190000000000 14.0515260155763375 C
atom 3.5766528281104297 0.2055810000000000 5.3025260155763370 C
atom 2.2211309749539749 13.9724190000000021 11.7483409248943040 C
