#=======================================================
# FHI-aims file: pahs_geometry_fix/KAGFOP.in
# Created using the Atomic Simulation Environment (ASE)
# Tue May 25 14:20:52 2021
#=======================================================
lattice_vector -11.1821199483126303 0.0000000000000000 5.2116947782414051 
lattice_vector 0.0000000000000000 0.0000000000000000 -12.3896999999999995 
lattice_vector -0.0000000000000028 -17.1641000000000012 -0.0000000000000011 
atom -8.8540025750739417 -15.0237367300000013 -8.0834294245884575 H
atom -2.3281173732386908 -2.1403632700000008 0.9054242028298599 H
atom -7.9191773473950047 -6.4416867299999998 -2.6835784080494367 H
atom -3.2629426009176266 -10.7224132700000006 -4.4944268137091594 H
atom -6.7573550847653250 -15.9402996699999999 -8.4535268955087197 H
atom -4.4247648635473071 -1.2238003300000007 1.2755216737501238 H
atom -10.0158248377036241 -7.3582496700000002 -2.3134809371291736 H
atom -1.1662951106090071 -9.8058503300000002 -4.8645242846294217 H
atom -5.7833924372672927 -0.1184322900000003 -6.9189186606935449 H
atom -5.3987275110453394 -17.0456677100000000 -0.2590865610650507 H
atom -10.9897874852016546 -8.7004822899999983 -3.8480891719443466 H
atom -0.1923324631109773 -8.4636177100000012 -3.3299160498142490 H
atom -5.8885043647814310 -1.2735762200000009 -4.6918194697780757 H
atom -5.2936155835312011 -15.8905237800000005 -2.4861857519805204 H
atom -10.8846755576875172 -9.8556262200000013 -6.0751883628598167 H
atom -0.2974443906251154 -7.3084737799999999 -1.1028168588987792 H
atom -6.9273233079796741 -1.5859628400000008 -2.6886758048794501 H
atom -4.2547966403329580 -15.5781371600000007 -4.4893294168791460 H
atom -9.8458566144892714 -10.1680128400000012 4.3113679722415545 H
atom -1.3362633338233609 -6.9960871600000001 -11.4893731940001516 H
atom -8.7802005834150769 -0.3690281499999975 -2.1187338701248497 H
atom -2.4019193648975556 -16.7950718500000029 -5.0592713516337469 H
atom -7.9929793390538695 -8.9510781500000025 -8.6482739625130431 H
atom -3.1891406092587622 -8.2130218500000005 1.4702687407544468 H
atom -0.2750801507284912 -14.0093384200000024 -5.3740580784552634 H
atom -10.9070397975841402 -3.1547615799999997 -1.8039471433033341 H
atom -5.3159798234278259 -5.4272884200000009 1.7850554675759644 H
atom -5.8661401248848071 -11.7368115799999995 -8.9630606893345579 H
atom -2.4052740008820499 -13.2112077700000015 -4.9647850932002733 H
atom -8.7768459474305835 -3.9528922299999993 -2.2132201285583206 H
atom -3.1857859732742697 -4.6291577700000008 1.3757824823209761 H
atom -7.9963339750383629 -12.5349422300000004 -8.5537877040795713 H
atom -4.0591095412374854 -13.4326246600000001 -6.5046544854983708 H
atom -7.1230104070751468 -3.7314753400000007 -0.6733507362602251 H
atom -1.5319504329188314 -4.8505746599999995 -9.4740481253809268 H
atom -9.6501695153938023 -12.3135253400000018 2.2960429036223333 H
atom -4.7848291258829754 -14.1380691700000014 -8.8178112943905038 H
atom -6.3972908224296559 -3.0260308300000003 1.6398060726319079 H
atom -0.8062308482733421 -5.5560191699999999 -7.1608913164887937 H
atom -10.3758891000392914 -11.6080808300000005 -0.0171139052698013 H
atom -4.2637423362916085 -14.9688116100000013 1.5560576589434461 H
atom -6.9183776120210245 -2.1952883900000004 -8.7340628807020408 H
atom -1.3273176378647094 -6.3867616100000006 -5.1450602698227446 H
atom -9.8548023104479228 -10.7773383900000006 -2.0329449519358489 H
atom -2.1022385502827752 -15.5180628100000018 -11.3937947716906187 H
atom -9.0798813980298565 -1.6460371899999999 4.2157895499320217 H
atom -3.4888214238735413 -6.9360128100000011 -4.5849078391886824 H
atom -7.6932985244390908 -10.2280871900000001 -2.5930973825699142 H
atom -11.0859537167571425 -12.6894191300000028 -6.2081093668514713 H
atom -0.0961662315554899 -4.4746808700000011 -0.9698958549071248 H
atom -5.6872262057118039 -4.1073691299999995 -4.5588984657864211 H
atom -5.4948937426008273 -13.0567308699999991 -2.6191067559721737 H
atom -0.9717262235083680 -11.5256931500000004 -0.6943899437708221 H
atom -10.2103937248042644 -5.6384068500000009 -6.4836152779877727 H
atom -4.6193337506479475 -2.9436431499999998 -2.8946126671084755 H
atom -6.5627861976646855 -14.2204568500000015 -4.2833925546501197 H
atom -1.7522381959005906 -12.6705386200000003 -2.5743883182495733 H
atom -9.4298817524120402 -4.4935613800000009 -4.6036169035090229 H
atom -3.8388217782557268 -4.0884886199999997 -1.0146142926297261 H
atom -7.3432981700569071 -13.0756113800000016 -6.1633909291288704 H
atom -1.2714070381231475 -14.9156029000000014 -2.8207926537139532 H
atom -9.9107129101894849 -2.2484971000000002 -4.3572125680446412 H
atom -4.3196529360331688 -6.3335528999999999 -0.7682099571653466 H
atom -6.8624670122794633 -10.8305471000000004 -6.4097952645932494 H
atom -0.2057510070489547 -16.0604483699999996 -1.1455527560803587 H
atom -10.9763689412636776 -1.1036516300000023 -6.0324524656782366 H
atom -5.3853089671073624 -7.4783983699999999 -2.4434498547989403 H
atom -5.7968109812052688 -9.6857016300000005 -4.7345553669596567 H
atom -8.1763661062061974 -14.0350845700000004 -2.0396251181498846 H
atom -3.0057538421064360 -3.1290154300000004 -5.1383801036087107 H
atom -8.5968138162627508 -5.4530345699999998 3.6623172855119916 H
atom -2.5853061320498814 -11.7110654300000014 -10.8403225072705869 H
atom -6.6388246133132105 -14.0659799500000009 -0.3427195901580786 H
atom -4.5432953349994216 -3.0981200499999999 -6.8352856316005175 H
atom -10.1343553091557368 -5.4839299500000003 1.9654117575201853 H
atom -1.0477646391568953 -11.6801700500000010 -9.1434169792787809 H
atom -6.9575150318401198 -15.3275413000000018 1.5118754010218003 H
atom -4.2246049164725124 -1.8365586999999999 -8.6898806227803966 H
atom -9.8156648906288293 -6.7454913000000012 0.1108167663403056 H
atom -1.3664550576838037 -10.4186087000000001 -7.2888219880989009 H
atom -8.9401048986759495 -16.5015657400000002 1.7643871452040025 H
atom -2.2420150496366826 -0.6625342600000014 -8.9423923669625989 H
atom -7.8330750237929987 -7.9195157400000014 -0.1416949778418962 H
atom -3.3490449245196339 -9.2445842599999999 -7.0363102439167005 H
atom -10.5011288434603927 -16.5118642000000015 0.0784261762465022 H
atom -0.6809911048522400 -0.6522357999999987 -7.2564313980050983 H
atom -6.2720510790085546 -7.9298142000000000 1.5442659911156043 H
atom -4.9100688693040784 -9.2342858000000021 -8.7222712128741993 H
atom -10.4519275156878173 -15.2212955210000001 -5.9460759607777591 C
atom -0.7301924326248154 -1.9428044790000003 -1.2319292609808363 C
atom -6.3212524067811300 -6.6392455210000003 -4.8209318718601342 C
atom -4.8608675415315021 -10.5248544790000018 -2.3570733498984615 C
atom -9.1033638499213136 -15.6924500660000010 -6.1991984410336727 C
atom -2.0787560983913167 -1.4716499340000007 -0.9788067807249237 C
atom -7.6698160725476336 -7.1104000659999995 -4.5678093916042197 C
atom -3.5123038757649994 -10.0536999339999991 -2.6101958301543746 C
atom -8.4503280449398570 -15.5266448600000011 -7.4142043660829708 C
atom -2.7317919033727756 -1.6374551400000008 0.2361991443243751 C
atom -8.3228518775290929 -6.9445948599999996 -3.3528034665549225 C
atom -2.8592680707835392 -10.2195051399999990 -3.8252017552036728 C
atom -7.1923395507546868 -16.1050750300000018 -7.6486525486351296 C
atom -3.9897803975579453 -1.0590249699999996 0.4706473268765345 C
atom -9.5808403717142632 -7.5230250300000012 -3.1183552840027642 C
atom -1.6012795765983689 -9.6410749700000000 -4.0596499377558306 C
atom -6.6052782534682732 -16.8894744000000010 -6.7303773844928019 C
atom -4.5768416948443598 -0.2746256000000002 -0.4476278372657934 C
atom -10.1679016690006758 -8.3074244000000004 -4.0366304481450905 C
atom -1.0142182793119570 -8.8566756000000009 -3.1413747736135043 C
atom -7.2281223345892851 -17.1280553900000001 -5.4687335053447574 C
atom -3.9539976137233452 -0.0360446100000017 -1.7092717164138389 C
atom -9.5450575878796631 -8.5460053900000013 -5.2982743272931367 C
atom -1.6370623604329688 -8.6180946100000000 -1.8797308944654598 C
atom -6.6757256091426402 -0.8152947499999998 -4.5058057773898810 C
atom -4.5063943391699919 -16.3488052500000016 -2.6721994443687147 C
atom -10.0974543133263079 -9.3973447500000002 -6.2612020552480114 C
atom -1.0846656349863237 -7.7667552500000010 -0.9168031665105842 C
atom -7.2817965103411852 -0.9783536999999990 -3.2978213304091972 C
atom -3.9003234379714469 -16.1857463000000017 -3.8801838913493989 C
atom -9.4913834121277620 -9.5604037000000002 -7.4691865022286956 C
atom -1.6907365361848699 -7.6036962999999993 0.2911812804700992 C
atom -8.4078359891362666 -0.2626107299999978 -2.9650440162402885 C
atom -2.7742839591763659 -16.9014892700000026 -4.2129612055183081 C
atom -8.3653439333326798 -8.8446607300000029 -7.8019638163976053 C
atom -2.8167760149799532 -8.3194392700000002 0.6239585946390097 C
atom -9.0071976183658258 -16.5449909129999995 -3.8664355861265483 C
atom -2.1749223299468068 -0.6191090870000009 -3.3115696356320461 C
atom -7.7659823041031224 -7.9629409129999997 -6.9005722465113442 C
atom -3.4161376442095097 -9.2011590870000006 -0.2774329752472516 C
atom -10.1869112729128091 -15.7375916490000005 -3.5656347570220812 C
atom -0.9952086753998227 -1.4265083510000005 -3.6123704647365149 C
atom -6.5862686495561400 -7.1555416489999999 -7.2013730756158116 C
atom -4.5958512987564930 -10.0085583510000014 0.0233678538572167 C
atom -10.4921831475017431 -15.2556237210000010 -2.3132383695760890 C
atom -0.6899368008108894 -1.9084762790000003 -4.8647668521825045 C
atom -6.2809967749672051 -6.6735737210000003 -8.4537694630618017 C
atom -4.9011231733454279 -10.4905262790000009 1.2757642413032055 C
atom -0.5993616292295592 -14.6075073050000004 -7.2647414898862612 C
atom -10.5827583190830730 -2.5565926950000009 0.0867362681276663 C
atom -4.9916983449267578 -6.0254573049999998 -8.7139611209930372 C
atom -6.1904216033858734 -11.1386426950000015 1.5359558992344426 C
atom -0.9225248957357944 -14.0659799500000009 -6.0386975507950851 C
atom -10.2595950525768380 -3.0981200499999999 -1.1393076709635110 C
atom -4.6685350784205237 -5.4839299500000003 -9.9400050600842125 C
atom -6.5135848698921093 -11.6801700500000010 2.7619998383256177 C
atom -2.2140597497659011 -13.6042656600000011 -5.7873753139082034 C
atom -8.9680601985467305 -3.5598343400000005 -1.3906299078503928 C
atom -3.3770002243904158 -5.0222156599999996 -10.1913272969710942 C
atom -7.8051197239222176 -12.1418843400000007 3.0133220752125012 C
atom -3.1969680932225826 -13.7123994899999992 -6.7131968329007847 C
atom -7.9851518550900495 -3.4517005099999976 -0.4648083888578125 C
atom -2.3940918809337357 -5.1303494900000013 -9.2655057779785164 C
atom -8.7880280673788977 -12.0337505100000026 2.0875005562199189 C
atom -2.9241243664837544 -14.2462029999999995 -7.9975601654898743 C
atom -8.2579955818288759 -2.9178970000000009 0.8195549437312767 C
atom -2.6669356076725639 -5.6641529999999998 -7.9811424453894233 C
atom -8.5151843406400705 -11.4999469999999988 0.8031372236308304 C
atom -3.9059144979456035 -14.3817993900000012 -8.9994800239602775 C
atom -7.2762054503670299 -2.7823006100000005 1.8214748022016820 C
atom -1.6851454762107125 -5.7997493899999997 -6.9792225869190183 C
atom -9.4969744721019183 -11.3643506100000007 -0.1987826348395746 C
atom -3.5905787154031885 -14.8589613700000012 -10.2020522567066863 C
atom -7.5915412329094458 -2.3051386299999996 3.0240470349480919 C
atom -2.0004812587531298 -6.2769113700000005 -5.7766503541726122 C
atom -9.1816386895595024 -10.8871886300000007 -1.4013548675859835 C
atom -2.2889799534195969 -15.1953777300000006 -10.5423149788939874 C
atom -8.8931399948930352 -1.9687222700000007 3.3643097571353904 C
atom -3.3020800207367196 -6.6133277300000000 -5.4363876319853128 C
atom -7.8800399275759121 -10.5507722700000013 -1.7416175897732831 C
atom -1.2613431301696674 -15.0496545210000008 -9.6125608390143711 C
atom -9.9207768181429650 -2.1144454790000005 2.4345556172557767 C
atom -4.3297168439866498 -6.4676045210000002 -6.3661417718649291 C
atom -6.8524031043259814 -10.6964954790000011 -0.8118634498936678 C
atom -11.0322795410052432 -15.3591232440000010 -4.7029975517870302 C
atom -0.1498404073073892 -1.8049767560000007 -2.4750076699715655 C
atom -5.7409003814637058 -6.7770732440000003 -6.0640102808508622 C
atom -5.4412195668489280 -10.3870267559999991 -1.1139949409077323 C
atom -8.4447369849657008 -16.4519614910000023 -5.1779914234720916 C
atom -2.7373829633469309 -0.7121385089999986 -2.0000137982865041 C
atom -8.3284429375032492 -7.8699114909999999 -5.5890164091658017 C
atom -2.8536770108093830 -9.2941885090000014 -1.5889888125927951 C
atom -1.5956885166242141 -14.6363429930000013 -8.2920993651449546 C
atom -9.5864314316884176 -2.5277570070000004 1.1140941433863556 C
atom -3.9953714575321020 -6.0542929929999998 -7.6866032457343456 C
atom -7.1867484907805297 -11.1098070070000006 0.5085980239757515 C
atom -11.1463371644780320 -14.4992018340000026 -7.0695466750489677 C
atom -0.0357827838346006 -2.6648981659999995 -0.1084585467096277 C
atom -5.6268427579909153 -5.9171518340000011 -3.6974611575889260 C
atom -5.5552771903217169 -11.2469481659999992 -3.4805440641696705 C
atom -0.1923324631109805 -13.1425513699999996 -12.1798787598142475 C
atom -10.9897874852016528 -4.0215486299999998 5.0018735380556523 C
atom -5.3987275110453385 -4.5605013700000008 -3.7988238510650501 C
atom -5.7833924372672945 -12.6035986300000005 -3.3791813706935456 C
atom -0.8341861481441242 -12.4422560900000008 -0.7783173095431912 C
atom -10.3479338001685086 -4.7218439100000005 -6.3996879122154020 C
atom -4.7568738260121934 -3.8602060900000001 -2.8106853013361071 C
atom -6.4252461223004396 -13.3038939100000011 -4.3673199204224895 C
atom -1.2792345220869679 -13.1219544500000005 -1.9139353373691852 C
atom -9.9028854262256640 -4.0421455500000008 -5.2640698843894107 C
atom -4.3118254520693515 -4.5399044499999999 -1.6750672735101126 C
atom -6.8702944962432797 -12.6241955500000014 -5.5029379482484826 C
atom -1.0131000673171255 -14.4676198899999999 -2.0478854330913303 C
atom -10.1690198809955064 -2.6964801100000004 -5.1301197886672663 C
atom -4.5779599068391903 -5.8855698900000002 -1.5411171777879678 C
atom -6.6041600414734418 -11.2785301100000019 -5.6368880439706270 C
atom -0.3712463822839818 -15.1507510700000019 -1.0485961533623864 C
atom -10.8108735660286506 -2.0133489299999994 -6.1294090683962086 C
atom -5.2198135918723354 -6.5687010700000013 -2.5404064575169123 C
atom -5.9623063564402976 -10.5953989300000000 -4.6375987642416829 C
atom -9.5048019560657373 -15.2987056120000009 -1.1887883884948063 C
atom -1.6773179922468950 -1.8653943880000001 -5.9892168332637885 C
atom -7.2683779664032109 -6.7166556120000003 2.8114805558569134 C
atom -3.9137419819094221 -10.4474443880000010 -9.9894857776155082 C
atom -8.3362704214670682 -14.5517239800000002 -1.2824254128210331 C
atom -2.8458495268455644 -2.6123760200000001 -5.8955798089375619 C
atom -8.4369095010018800 -5.9696739800000005 2.9051175801831399 C
atom -2.7452104473107530 -11.1944260200000016 -10.0831228019417338 C
atom -7.4148637377261082 -14.5723209000000011 -0.2622741625481255 C
atom -3.7672562105865239 -2.5917791000000006 -6.9157310592104704 C
atom -9.3583161847428418 -5.9902708999999996 1.8849663299102322 C
atom -1.8238037635697908 -11.1738291000000007 -9.0629715516688272 C
atom -7.6060779888422525 -15.3017951500000002 0.8465181281598024 C
atom -3.5760419594703783 -1.8623048500000008 -8.0245233499183986 C
atom -9.1671019336266966 -6.7197451499999996 0.7761740392023033 C
atom -2.0150180146859369 -10.4443548500000016 -7.9541792609608999 C
atom -8.7813187954099110 -16.0192545300000013 0.9854071493529745 C
atom -2.4008011529027216 -1.1448454699999997 -8.1634123711115709 C
atom -7.9918611270590363 -7.4372045300000007 0.6372850180091316 C
atom -3.1902588212535954 -9.7268954700000005 -7.8152902397677266 C
atom -9.7172622350836768 -16.0209709400000015 -0.0217740477082196 C
atom -1.4648577132289562 -1.1431290599999999 -7.1562311740503759 C
atom -7.0559176873852705 -7.4389209400000009 1.6444662150703258 C
atom -4.1262022609273625 -9.7251790600000003 -8.8224714368289199 C
