#=======================================================
# FHI-aims file: pahs_geometry_fix/CRYSEN01.in
# Created using the Atomic Simulation Environment (ASE)
# Tue May 25 14:20:52 2021
#=======================================================
lattice_vector 0.0000000000000010 6.2160000000000002 0.0000000000000004 
lattice_vector -0.0000000000000000 -0.0000000000000000 8.3480000000000008 
lattice_vector 11.3284346072371704 -3.1080000000000001 -1.2887092765830575 
atom 7.3748109293113995 -1.0542336000000005 2.8683970609444298 C
atom 3.9536236779257736 4.1622335999999995 4.1908936624725133 C
atom 3.9536236779257727 2.0537664000000015 0.0168936624725131 C
atom 7.3748109293114004 1.0542335999999994 7.0423970609444302 C
atom 8.0295944496097071 -0.0441336000000001 2.1360872647579288 C
atom 3.2988401576274642 3.1521336000000009 4.9232034586590157 C
atom 3.2988401576274642 3.0638664000000007 0.7492034586590139 C
atom 8.0295944496097071 0.0441335999999997 6.3100872647579296 C
atom 9.3686154201851419 -0.1274279999999999 1.8593766282658117 C
atom 1.9598191870520316 3.2354279999999997 5.1999140951511311 C
atom 1.9598191870520316 2.9805720000000013 1.0259140951511314 C
atom 9.3686154201851419 0.1274279999999998 6.0333766282658132 C
atom 10.1230891650271371 -1.2121200000000001 2.2978029904453803 C
atom 1.2053454422100360 4.3201200000000002 4.7614877329715632 C
atom 1.2053454422100358 1.8958799999999998 0.5874877329715629 C
atom 10.1230891650271371 1.2121199999999994 6.4718029904453811 C
atom 9.5249478177650122 -2.2085447999999999 3.0053036402489655 C
atom 1.8034867894721585 5.3165448000000008 4.0539870831679776 C
atom 1.8034867894721582 0.8994551999999998 -0.1200129168320227 C
atom 9.5249478177650140 2.2085448000000003 7.1793036402489667 C
atom 8.1428787956820798 -2.1625464000000001 3.3052769719920989 C
atom 3.1855558115550933 5.2705464000000006 3.7540137514248451 C
atom 3.1855558115550928 0.9454535999999999 7.9280137514248441 C
atom 8.1428787956820816 2.1625464000000001 -0.8687230280079017 C
atom 7.5220805792054826 3.0128952000000004 4.0403990403488503 C
atom 3.8063540280316901 0.0951047999999999 3.0188916830680927 C
atom 3.8063540280316901 -0.0951047999999999 7.1928916830680931 C
atom 7.5220805792054826 3.2031048000000006 -0.1336009596511500 C
atom 6.2193105993732081 3.0508128000000001 4.3096466071559023 C
atom 5.1091240078639659 0.0571872000000002 2.7496441162610417 C
atom 5.1091240078639659 -0.0571872000000007 6.9236441162610411 C
atom 6.2193105993732081 3.1651872000000001 0.1356466071559018 C
atom 5.9542252295638578 -1.0268832000000008 3.1702476042279448 C
atom 5.3742093776733135 4.1348832000000000 3.8890431191889987 C
atom 5.3742093776733135 2.0811168000000007 -0.2849568808110020 C
atom 5.9542252295638578 1.0268831999999994 7.3442476042279452 C
atom 7.5944246965269482 0.6512568245921567 1.8463297050853109 H
atom 5.4075839392620715 0.7394157492985759 2.2997709387189751 H
atom 9.7419171361687340 0.5120813946307019 1.4026780810568462 H
atom 3.3695769870212602 0.7858277615533026 2.7205167397011785 H
atom 10.9746273429784278 -1.2676885731289171 2.1284074026285431 H
atom 1.3043816868132070 -0.2357731347265682 3.7945256934889113 H
atom 7.9588576202159045 2.3221722384466950 4.3387739837157691 H
atom 10.0240529204239674 3.3437731347265682 3.2647650299280335 H
atom 5.9208506679751114 2.3685842507014176 4.7595197846979644 H
atom 3.7340099107102134 2.4567431754078419 5.2129610183316331 H
atom 1.5865174710684420 2.5959186053692975 5.6566126423601011 H
atom 0.3538072642587413 4.3756885731289161 4.9308833207883955 H
atom 3.7340099107102112 3.7592568245921614 1.0389610183316351 H
atom 1.5865174710684404 3.6200813946307036 1.4826126423600985 H
atom 5.9208506679751114 3.8474157492985803 0.5855197846979682 H
atom 0.3538072642587437 1.8403114268710843 0.7568833207883983 H
atom 7.9588576202159045 3.8938277615533052 0.1647739837157669 H
atom 10.0240529204239710 2.8722268652734266 -0.9092349700719642 H
atom 1.3043816868132074 0.2357731347265693 7.9685256934889122 H
atom 3.3695769870212597 -0.7858277615533016 6.8945167397011753 H
atom 5.4075839392620697 -0.7394157492985810 6.4737709387189772 H
atom 7.5944246965269464 -0.6512568245921559 6.0203297050853131 H
atom 9.7419171361687340 -0.5120813946307006 5.5766780810568441 H
atom 10.9746273429784296 1.2676885731289143 6.3024074026285426 H
