#=======================================================
# FHI-aims file: pahs_geometry_fix/HBZCOR.in
# Created using the Atomic Simulation Environment (ASE)
# Tue May 25 14:20:52 2021
#=======================================================
lattice_vector -0.0000000000000008 -5.1100000000000003 -0.0000000000000003 
lattice_vector 0.0000000000000000 0.0000000000000000 -12.8599999999999994 
lattice_vector 17.0178609888579047 0.0000000000000000 5.8109711758350464 
atom 0.6619947924665723 -0.9095800000000003 -7.9220492212600160 C
atom 16.3558661963913323 -4.2004200000000003 0.8730203970950647 C
atom 7.8469357019623791 -3.4645799999999998 -8.4624651908224600 C
atom 9.1709252868955264 -1.6454199999999999 1.4134363666575067 C
atom 14.6404658087144544 -1.7885000000000000 3.5717185025708913 C
atom 2.3773951801434485 -3.3215000000000003 -10.6207473267358434 C
atom 10.8863256745724009 -4.3435000000000006 -1.2852617388183212 C
atom 6.1315353142855029 -0.7664999999999996 -5.7637670853466325 C
atom 13.6551316574595827 -2.6520900000000003 3.1413852714900417 C
atom 3.3627293313983215 -2.4579100000000000 -10.1904140956549938 C
atom 11.8716598258272743 -0.0970899999999995 -0.8549285077374704 C
atom 5.1462011630306295 -5.0129100000000006 -6.1941003164274822 C
atom 13.0765243838384126 -3.5667800000000001 4.0073342515116499 C
atom 3.9413366050194907 -1.5432200000000003 -11.0563630756766038 C
atom 12.4502670994484461 -1.0117799999999999 -1.7208774877590796 C
atom 4.5675938894094612 -4.0982200000000004 -5.3281513364058739 C
atom 14.2337389310807527 -3.5514500000000004 -4.6792517085315666 C
atom 2.7841220577771528 -1.5585500000000003 -2.3697771156333878 C
atom 11.2930525522061043 -0.9964499999999993 -5.8942915277158612 C
atom 5.7248084366517977 -4.1135500000000000 -1.1547372964490898 C
atom 14.8021354881086058 -2.6572000000000005 -5.6914332712586759 C
atom 2.2157255007492989 -2.4527999999999999 -1.3575955529062780 C
atom 10.7246559951782512 -0.1021999999999995 -4.8821099649887518 C
atom 6.2932049936796526 -5.0078000000000005 -2.1669188591761994 C
atom 15.8606464416155681 -1.7578400000000001 -5.2091068641217362 C
atom 1.1572145472423370 -3.3521600000000005 -1.8399219600432177 C
atom 9.6661450416712889 -4.3128400000000005 -5.3644363721256934 C
atom 7.3517159471866149 -0.7971599999999996 -1.6845924520392588 C
atom 16.3813929878746194 -0.8942500000000003 -6.1809751461411846 C
atom 0.6364680009832850 -4.2157499999999999 -0.8680536780237714 C
atom 9.1453984954122376 -3.4492500000000006 -4.3925680901062458 C
atom 7.8724624934456662 -1.6607499999999999 -2.6564607340587068 C
atom 0.3948143749415033 0.0000000000000000 -11.5240614687206264 C
atom 16.6230466139164008 0.0000000000000000 4.4750326445556734 C
atom 8.1141161194874485 -2.5550000000000002 -4.8604529433618486 C
atom 8.9037448693704544 -2.5550000000000002 -2.1885758808031035 C
atom 16.0274214793063727 -0.8635900000000003 5.3531746534014477 C
atom 0.9904395095515294 -4.2464100000000000 -12.4022034775664007 C
atom 9.4993700039804825 -3.4185900000000005 -3.0667178896488769 C
atom 7.5184909848774231 -1.6914099999999999 -3.9823109345160774 C
atom 15.0454909002492734 -1.7527299999999999 4.9162876165557652 C
atom 1.9723700886086308 -3.3572700000000002 -11.9653164407207164 C
atom 10.4813005830375836 -4.3077300000000003 -2.6298308528031944 C
atom 6.5365604058203211 -0.8022700000000001 -4.4191979713617586 C
atom 1.6422235854247871 -5.0997800000000000 -7.4021532815319171 C
atom 15.3756374034331156 -0.0102200000000006 0.3531244573669659 C
atom 6.8667069090041641 -2.5447800000000003 -8.9823611305505580 C
atom 10.1511540798537414 -2.5652200000000001 1.9333323063856056 C
atom 14.4328479046503890 -2.6367600000000002 -7.0482333457742969 C
atom 2.5850130842075156 -2.4732400000000001 -0.0007954783906563 C
atom 11.0939435786364680 -0.0817600000000001 -3.5253098904731326 C
atom 5.9239174102214358 -5.0282400000000003 -3.5237189336918218 C
atom 13.4917601919665451 -3.5616700000000003 -7.4544560517979752 C
atom 3.5261007968913574 -1.5483300000000004 0.4054272276330220 C
atom 12.0350312913203119 -1.0066699999999997 -3.1190871844494543 C
atom 4.9828296975375936 -4.1033299999999997 -3.9299416397154978 C
atom 2.1936022814637832 -4.2310800000000004 -8.3404138154348626 C
atom 14.8242587073941205 -0.8789199999999997 1.2913849912699094 C
atom 6.3153282129651682 -1.6760799999999998 -8.0441005966476169 C
atom 10.7025327758927364 -3.4339199999999996 0.9950717724826605 C
atom 14.6710979584943999 -3.5259000000000000 -3.3853697493126047 C
atom 2.3467630303635048 -1.5841000000000003 -3.6636590748523474 C
atom 10.8556935247924571 -0.9708999999999992 -7.1881734869348239 C
atom 6.1621674640654458 -4.1391000000000009 0.1391446627698705 C
atom 15.6666428263425868 -2.6214300000000001 -2.9669819355262557 C
atom 1.3512181625153172 -2.4885700000000002 -4.0820468886386987 C
atom 9.8601486569442702 -0.0664300000000006 -7.6065613007211734 C
atom 7.1577123319136335 -5.0435699999999999 0.5575324765562201 C
atom 16.1958983030960688 -1.7782800000000001 -3.8819327319577837 C
atom 0.8219626857618364 -3.3317200000000002 -3.1670960922071671 C
atom 9.3308931801907899 -4.3332800000000002 -6.6916105042896428 C
atom 7.6869678086671165 -0.7767200000000002 -0.3574183198753089 C
atom 0.1650732515919215 -0.8942500000000003 -9.2324115795943982 C
atom 16.8527877372659809 -4.2157499999999999 2.1833827554294483 C
atom 8.3438572428370303 -3.4492500000000006 -7.1521028324880751 C
atom 8.6740037460208743 -1.6607499999999999 0.1030740083231229 C
atom 0.7947341081796634 -5.0691199999999998 -10.1195076460885041 C
atom 16.2231268806782403 -0.0408800000000006 3.0704788219235502 C
atom 7.7141963862492871 -2.5141200000000001 -6.2650067659939737 C
atom 9.3036646026086167 -2.5958800000000002 -0.7840220581709788 C
atom 1.7885771899289651 -4.2259700000000002 -9.7042729294197372 C
atom 15.2292837989289396 -0.8840300000000003 2.6552441052547828 C
atom 6.7203533044999864 -1.6709699999999998 -6.6802414826627405 C
atom 10.2975076843579174 -3.4390300000000003 -0.3687873415022124 C
atom 12.4822722686236673 -4.1167592729979399 3.6890777153093786 H
atom 13.3948606189883499 -2.6193902921683989 2.3118735382150795 H
atom 14.2111191383875770 -1.4325577075017550 1.0185385917139180 H
atom 15.1303015665190461 -0.0394532014295212 -0.4810552277488039 H
atom 0.3425786067060403 -1.5276043654581080 -7.3996325446748434 H
atom 15.9535694203370646 -2.5836973406692034 -2.1465251261337346 H
atom 14.3141159967048122 -4.0880041651860033 -2.8254565538640564 H
atom 13.6050228337345231 -4.1264336991063590 -4.8553477468166459 H
atom 13.1765555186962153 -4.1130139353595370 -6.8598419930247205 H
atom 3.8413054701616862 -0.9969860646404659 -0.1891868311402330 H
atom 1.0642915685208405 -2.5263026593307965 -4.9025036980312189 H
atom 3.4128381551233762 -0.9835663008936376 -2.1936810773483133 H
atom 2.7037449921530960 -1.0219958348139939 -4.2235722703008864 H
atom 16.6752823821518703 -3.5823956345418946 0.3506037205098982 H
atom 1.8875594223388614 -5.0705467985704820 -6.5679735964161425 H
atom 2.8067418504703245 -3.6774422924982457 -8.0675674158788588 H
atom 3.6230003698695703 -2.4906097078315992 -9.3609023623800365 H
atom 4.5355887202342284 -0.9932407270020610 -10.7381065394743338 H
atom 9.5732220629497888 -0.0286973406692046 -8.4270181101136927 H
atom 11.2126754865820484 -1.5330041651860034 -7.7480866823833701 H
atom 11.9217686495523214 -1.5714336991063660 -5.7181954894307854 H
atom 12.3502359645906399 -1.5580139353595337 -3.7137012432227148 H
atom 13.0445192146631843 -1.5617592729979388 -1.4026209515568075 H
atom 12.1319308642985213 -0.0643902921684009 -0.0254167744625119 H
atom 8.1663518877229109 -4.0826043654581081 -8.9848818674076334 H
atom 6.6213710720900920 -2.5155467985704809 -9.8165408156663307 H
atom 5.7021886439586273 -1.1224422924982469 -8.3169469962036207 H
atom 8.8515091011349938 -1.0273956345418929 1.9358530432426813 H
atom 11.3156723448992835 -3.9875577075017561 1.2679181720386561 H
atom 10.3964899167678109 -2.5944532014295216 2.7675119915013813 H
atom 4.8859301245593834 -5.0456097078316011 -7.0236120497024386 H
atom 3.9733417741947261 -3.5482407270020619 -5.6464078726081510 H
atom 4.6676250242672701 -3.5519860646404640 -3.3353275809422360 H
atom 5.0960923393055824 -3.5385663008936348 -1.3308333347341688 H
atom 7.4446389259081167 -5.0813026593307988 1.3779892859487413 H
atom 5.8051855022758572 -3.5769958348139985 0.6990578582184176 H
