#=======================================================
# FHI-aims file: pahs_geometry_fix/KAQLEV.in
# Created using the Atomic Simulation Environment (ASE)
# Tue May 25 14:20:52 2021
#=======================================================
lattice_vector -3.8879364435382620 0.0000000000000000 -0.3309897445647692 
lattice_vector 1.4813288193876946 -11.8749027635857374 -0.6125848941174237 
lattice_vector 0.0000000000000000 0.0000000000000000 19.3999999999999986 
atom -0.3874729514164563 -0.3503096315257789 7.9419019829513031 H
atom -2.0191346727341113 -11.5245931320599588 10.5145233783665031 H
atom -1.0109646715630269 -4.7428361637761434 6.5078396205799027 H
atom -1.3956429525875413 -7.1320665998095940 11.9485857407379044 H
atom -1.6242038858780894 -10.9878475271458829 5.8362937972349060 H
atom -0.7824037382724789 -0.8870552364398544 12.6201315640829002 H
atom -0.3110394738972374 -0.7884935435020944 1.4764711429279322 H
atom -2.0955681502533312 -11.0864092200836435 16.9799542183898744 H
atom -2.6146219410291676 -8.1877454554923652 2.7193411063890642 H
atom 0.2080143168785996 -3.6871573080933726 15.7370842549287424 H
atom -3.0691880609166620 -5.4850175865002520 5.6811695380043341 H
atom 0.6625804367660939 -6.3898851770854854 12.7752558233134721 H
atom -2.5348371782817516 -0.2719352732861124 1.9866468816907679 H
atom 0.1282295541311839 -11.6029674902996245 16.4697784796270383 H
atom 0.6151329023254304 -6.6048209171063874 1.5058461326087607 H
atom -3.0217405264759991 -5.2700818464793500 16.9505792287090458 H
atom -0.9171394905411968 -1.3964885649976846 18.7306511951524577 H
atom -1.4894681336093702 -10.4784141985880535 -0.2742258338346532 H
atom -0.4111762604010087 -5.2748318075847846 0.2576676102777288 H
atom -1.9954313637495604 -6.6000709560009536 18.1987577510400769 H
atom -2.1697637595713926 -5.2867067103483709 8.6315759680191402 H
atom -0.2368438645791761 -6.5881960532373665 9.8248493932986651 H
atom -0.6800730257015084 -9.4773598956177771 4.3732719083583591 H
atom -1.7265345984490597 -2.3975428679679598 14.0831534529594453 H
atom -1.3856442179393456 -0.9226799447306130 10.1648401123250753 H
atom -1.0209634062112225 -10.9522228188551249 8.2915852489927317 H
atom -2.4488380198027904 -2.4604798526149656 11.5151468789913594 H
atom 0.0422303956522222 -9.4144229109707727 6.9412784823264451 H
atom -0.9586450825560745 -3.6444076581444622 18.1081029238460687 H
atom -1.4479625415944926 -8.2304951054412747 0.3483224374717379 H
atom -2.4990678521909273 -7.6118126714584582 4.9882451794417806 H
atom 0.0924602280403583 -4.2630900921272792 13.4681801818760256 H
atom -0.3480326606421362 -10.0758549949024978 2.1313691507850288 H
atom -2.0585749635084323 -1.7990477686832402 16.3250562105327752 H
atom -2.8518118151614513 -4.6407120000093069 10.7438164727749594 H
atom 0.4452041910108837 -7.2341907635764304 7.7126088885428485 H
atom 0.3241675612827817 -5.0593023224257037 2.7955365655278830 C
atom -2.7307751854333486 -6.8156004411600337 15.6608887957899228 C
atom -1.1145794634242756 -2.1596885656133389 8.5269567659341412 C
atom -1.2920281607262925 -9.7152141979723989 9.9294685953836623 C
atom -0.5165921571715817 -1.2444898096237840 7.6514100752357015 C
atom -1.8900154669789861 -10.6304129539619527 10.8050152860821047 C
atom -3.4244406371227232 -0.6328135682714834 5.1069238020626138 C
atom 1.0178330129721542 -11.2420891953142537 13.3495015592551916 C
atom -0.8778093964824240 -3.8498434759544966 6.8003472595506560 C
atom -1.5287982276681436 -8.0250592876312403 11.6560781017671484 C
atom -0.0194793909474820 -4.0327169785137169 1.8267731482882175 C
atom -2.3871282332030872 -7.8421857850720196 16.6296522130295870 C
atom -1.5145264780569512 -11.2293830493572173 4.9246258706623518 C
atom -0.8920811460936163 -0.6455197142285203 13.5317994906554535 C
atom -0.1061568132200406 -1.5981244139233690 6.3728951508217770 C
atom -2.3004508109305273 -10.2767783496623686 12.0835302104960292 C
atom -1.3293830209774442 -3.4843339688913271 8.0852166734641369 C
atom -1.0772246031731247 -8.3905687946944099 10.3712086878536685 C
atom -0.3253159803201603 -1.7087985076799879 1.2408849541142821 C
atom -2.0812916438304074 -10.1661042559057488 17.2155404072035232 C
atom 0.2519905378419179 -2.3248684630548140 3.6251050497278463 C
atom -2.6585981619924874 -9.5500343005309212 14.8313203115899590 C
atom -0.2456152810096901 -2.9557820468841256 5.9463798044665532 C
atom -2.1609923431408773 -8.9191207167016113 12.5100455568512547 C
atom -3.2874533808528055 -0.9717232931442203 3.7486215393621007 C
atom 0.8808457567022381 -10.9031794704415166 14.7078038219557055 C
atom 0.1142383187675366 -3.3268727582461799 4.5742028494245321 C
atom -2.5208459429181036 -8.5480300053395570 13.8822225118932732 C
atom -2.8397119860369435 -7.3090026509870203 3.0033559931401799 C
atom 0.4331043618863754 -4.5659001125987153 15.4530693681776281 C
atom 0.3485350513734949 -4.7107739263144630 4.1699197032128836 C
atom -2.7551426755240631 -7.1641288372712744 14.2865056581049217 C
atom -3.1180426370528025 -5.7011408167975119 4.7577801929123833 C
atom 0.7114350129022342 -6.1737619467882254 13.6986451684054238 C
atom -2.6676475872590011 -0.0428683989765445 2.8998378092465114 C
atom 0.2610399631084329 -11.8320343646091928 15.5565875520712922 C
atom 0.6590808526010263 -6.3649478812819558 2.4238931526166634 C
atom -3.0656884767515939 -5.5099548823037816 16.0325322087011415 C
atom 0.0259669495617556 -2.6766030829122269 2.2160889770964030 C
atom -2.4325745737123237 -9.1982996806735109 16.2403363842214041 C
atom -0.6860916210356937 -2.0674205711402771 -0.0376353400461695 C
atom -1.7205160031148756 -9.8074821924454607 18.4940607013639742 C
atom -0.3872168357482530 -4.3604642947886827 0.5156307830568199 C
atom -2.0193907884023150 -7.5144384687970547 17.9407945782609879 C
atom -2.0005801263253744 -4.4020264544612333 8.9320657052650958 C
atom -0.4060274978251938 -7.4728763091245041 9.5243596560527113 C
atom -0.9471405708100978 -10.3347278751486673 4.0632380655759501 C
atom -1.4594670533404708 -1.5401748884370705 14.3931872957418552 C
atom -1.5414238115163807 -1.8026102395123156 9.8430889721172008 C
atom -0.8651838126341873 -10.0722925240734238 8.6133363892006081 C
atom -2.1697722973783833 -2.7122277912029831 10.6420961259648461 C
atom -0.2368353267721839 -9.1626749723827565 7.8143292353529574 C
atom -0.7149684090855382 -3.3974096806618799 18.9921865656099840 C
atom -1.6916392150650297 -8.4774930829238571 -0.5357612042921770 C
atom -2.7777887657041300 -6.9670054513957522 4.3494900622195543 C
atom 0.3711811415535617 -4.9078973121899852 14.1069352990982519 C
atom -0.7628462042640148 -10.6838500163980878 2.7314138984421432 C
atom -1.6437614198865533 -1.1910527471876502 15.7250114628756634 C
atom -2.4058765392347015 -4.0172796049210557 10.1815254983089964 C
atom -0.0007310849158668 -7.8576231586646816 8.2748998630088071 C
