#=======================================================
# FHI-aims file: pahs_geometry_fix/YUNYAJ.in
# Created using the Atomic Simulation Environment (ASE)
# Tue May 25 14:20:53 2021
#=======================================================
lattice_vector -0.0000000000000008 -5.1330000000000000 -0.0000000000000003 
lattice_vector -11.5658930082606783 0.0000000000000000 0.0127173687026471 
lattice_vector 0.0000000000000000 0.0000000000000000 -15.5435999999999996 
atom -2.3918266741083087 -3.2486757000000002 -2.2340940881522950 H
atom -9.1740663341523714 -1.8843242999999998 -13.2967885431450590 H
atom -9.1740663341523696 -0.6821757000000001 -5.5249885431450618 H
atom -2.3918266741083087 -4.4508242999999998 -10.0058940881522922 H
atom -4.5349866485390109 -2.9088710999999998 -1.4265790797316933 H
atom -7.0309063597216666 -2.2241289000000002 -14.1043035515656605 H
atom -7.0309063597216666 -0.3423711000000005 -6.3325035515656634 H
atom -4.5349866485390118 -4.7906288999999997 -9.1983790797316924 H
atom -4.9386363145273089 -1.2955691999999999 -15.3376572435639691 H
atom -6.6272566937333686 -3.8374308000000004 -0.1932253877333838 H
atom -6.6272566937333686 -3.8620692000000005 -7.9650253877333839 H
atom -4.9386363145273089 -1.2709308000000008 -7.5658572435639693 H
atom -5.2231572825305221 -0.0467103000000000 -13.7721038762938832 H
atom -6.3427357257301571 -5.0862897000000000 -1.7587787550034708 H
atom -6.3427357257301562 -2.6132103000000000 -9.5305787550034680 H
atom -5.2231572825305230 -2.5197897000000000 -6.0003038762938861 H
atom -5.5816999657866040 -3.5556291000000004 -12.1240880378641016 H
atom -5.9841930424740752 -1.5773709000000000 -3.4067945934332524 H
atom -5.9841930424740752 -0.9891290999999999 -11.1785945934332513 H
atom -5.5816999657866040 -4.1438709000000005 -4.3522880378641027 H
atom -3.8792005149706310 -2.1240354000000004 -11.4964442345371314 H
atom -7.6866924932900487 -3.0089646000000001 -4.0344383967602226 H
atom -7.6866924932900469 -4.6905353999999999 -11.8062383967602216 H
atom -3.8792005149706319 -0.4424646000000003 -3.7246442345371320 H
atom -1.5648653240176684 -1.3212341999999999 -11.7678932600145316 H
atom -10.0010276842430095 -3.8117657999999994 -3.7629893712828215 H
atom -10.0010276842430095 -3.8877341999999997 -11.5347893712828213 H
atom -1.5648653240176684 -1.2452658000000008 -3.9960932600145318 H
atom -11.0338619298806861 -1.5486260999999999 -12.6636734302576741 H
atom -0.5320310783799923 -3.5843738999999997 -2.8672092010396781 H
atom -0.5320310783799923 -4.1151260999999995 -10.6390092010396806 H
atom -11.0338619298806861 -1.0178739000000008 -4.8918734302576743 H
atom -1.4753453121337325 -1.7724249000000003 -1.1406769364482914 C
atom -10.0905476961269471 -3.3605751000000001 -14.3902056948490618 C
atom -10.0905476961269471 -4.3389248999999994 -6.6184056948490619 C
atom -1.4753453121337337 -0.7940750999999997 -8.9124769364482912 C
atom -2.5487758422304054 -2.5706064000000000 -1.5874631894589979 C
atom -9.0171171660302729 -2.5623936000000000 -13.9434194418383548 C
atom -9.0171171660302729 -0.0041064000000007 -6.1716194418383550 C
atom -2.5487758422304059 -5.1288935999999996 -9.3592631894589982 C
atom -3.8177856230967664 -2.3786322000000002 -1.0992422877649433 C
atom -7.7481073851639115 -2.7543678000000003 -14.4316403435324094 C
atom -7.7481073851639115 -4.9451321999999998 -6.6598403435324096 C
atom -3.8177856230967673 -0.1878678000000004 -8.8710422877649453 C
atom -4.0575465851580104 -1.4120883000000006 -0.1292134527117400 C
atom -7.5083464231026671 -3.7209117000000007 -15.4016691785856139 C
atom -7.5083464231026680 -3.9785883000000002 -7.6298691785856150 C
atom -4.0575465851580104 -1.1544117000000000 -7.9010134527117364 C
atom -3.0278351306325626 -0.6118535999999999 -15.1850994600473328 C
atom -8.5380578776281162 -4.5211464000000001 -0.3457831712500197 C
atom -8.5380578776281144 -3.1783535999999999 -8.1175831712500202 C
atom -3.0278351306325617 -1.9546464000000001 -7.4132994600473330 C
atom -3.2773114428207446 -4.7449452000000001 -14.1340777864044167 C
atom -8.2885815654399320 -0.3880548000000000 -1.3968048448929371 C
atom -8.2885815654399320 -2.1784452000000001 -9.1686048448929345 C
atom -3.2773114428207442 -2.9545547999999999 -6.3622777864044178 C
atom -4.5097730017810038 -4.6043010000000004 -13.5204602195954653 C
atom -7.0561200064796745 -0.5286989999999999 -2.0104224117018883 C
atom -7.0561200064796745 -2.0378010000000000 -9.7822224117018877 C
atom -4.5097730017810038 -3.0951990000000000 -5.7486602195954664 C
atom -4.7274431081964705 -3.6290310000000003 -12.5342903307164786 C
atom -6.8384499000642078 -1.5039690000000001 -2.9965923005808754 C
atom -6.8384499000642078 -1.0625309999999999 -10.7683923005808744 C
atom -4.7274431081964705 -4.0704690000000001 -4.7624903307164796 C
atom -3.7207477807574594 -2.7851657999999997 -12.1606410544883587 C
atom -7.8451452275032185 -2.3478342000000008 -3.3702415768089948 C
atom -7.8451452275032167 -0.2186658000000004 -11.1420415768089960 C
atom -3.7207477807574594 -4.9143341999999999 -4.3888410544883580 C
atom -2.4500031159398596 -2.8914189000000001 -12.7544049077877180 C
atom -9.1158898923208191 -2.2415810999999999 -2.7764777235096352 C
atom -9.1158898923208191 -0.3249189000000001 -10.5482777235096350 C
atom -2.4500031159398596 -4.8080810999999999 -4.9826049077877181 C
atom -1.4003983254402015 -2.0157291000000002 -12.3954137969974845 C
atom -10.1654946828204764 -3.1172708999999998 -3.1354688342998687 C
atom -10.1654946828204764 -4.5822291000000002 -10.9072688342998703 C
atom -1.4003983254402026 -0.5507709000000003 -4.6236137969974838 C
atom -0.1552142841708585 -2.1512403000000000 -12.9350578169120105 C
atom -11.4106787240898200 -2.9817597000000000 -2.5958248143853426 C
atom -11.4106787240898218 -4.7177403000000000 -10.3676248143853424 C
atom -0.1552142841708595 -0.4152597000000005 -5.1632578169120098 C
atom -11.4321912850851852 -3.1737339000000002 -13.8610252600795558 C
atom -0.1337017231754926 -1.9592661000000002 -1.6698573712177971 C
atom -0.1337017231754937 -0.6072338999999998 -9.4416573712177971 C
atom -11.4321912850851852 -4.5257661000000002 -6.0892252600795560 C
atom -0.8967036849304509 -4.0309448999999997 -14.2966390464044828 C
atom -10.6691893233302277 -1.1020551000000005 -1.2342435848928710 C
atom -10.6691893233302277 -1.4644449000000006 -9.0060435848928684 C
atom -0.8967036849304508 -3.6685550999999998 -6.5248390464044856 C
atom -0.6386686119161560 -5.0493321000000000 -15.2732162869002401 C
atom -10.9272243963445224 -0.0836679000000005 -0.2576663443971127 C
atom -10.9272243963445241 -2.4828321000000000 -8.0294663443971128 C
atom -0.6386686119161556 -2.6501679000000000 -7.5014162869002403 C
atom -1.7225084457202644 -0.7668701999999998 -0.1728160662791152 C
atom -9.8433845625404164 -4.3661298000000004 -15.3580665650182375 C
atom -9.8433845625404164 -3.3333702000000001 -7.5862665650182377 C
atom -1.7225084457202633 -1.7996298000000002 -7.9446160662791154 C
atom -2.2093168824379550 -3.8954336999999999 -13.7354707162304202 C
atom -9.3565761258227234 -1.2375663000000006 -1.7954119150669325 C
atom -9.3565761258227234 -1.3289337000000001 -9.5672119150669328 C
atom -2.2093168824379550 -3.8040663000000001 -5.9636707162304203 C
