#=======================================================
# FHI-aims file: pahs_geometry_fix/PEZPUG.in
# Created using the Atomic Simulation Environment (ASE)
# Tue May 25 14:20:53 2021
#=======================================================
lattice_vector -0.0000000000000016 -10.1039999999999992 -0.0000000000000006 
lattice_vector -11.9017846427111600 0.0000000000000000 2.6350753914309153 
lattice_vector 0.0000000000000000 0.0000000000000000 -17.2369999999999983 
atom -4.5560031612298353 -8.9602272000000003 -1.9767415401602459 H
atom -7.3457814814813274 -1.1437727999999996 -12.6251830684088375 H
atom -1.3948891601257496 -3.9082272000000002 -5.3242207641242976 H
atom -10.5068954825854135 -6.1957728000000003 -9.2777038444447868 H
atom -5.8771012565707741 -9.0622775999999998 -3.9164396717114149 H
atom -6.0246833861403895 -1.0417223999999996 -10.6854849368576694 H
atom -0.0737910647848096 -4.0102776000000011 -3.3845226325731290 H
atom -11.8279935779263514 -6.0937224000000008 -11.2174019759959549 H
atom -8.0527474892583726 -8.3570183999999994 -3.9466867901578433 H
atom -3.8490371534527896 -1.7469816000000005 -10.6552378184112406 H
atom -9.7999294748083692 -3.3050183999999994 -0.7192001226957837 H
atom -2.1018551679027930 -6.7989816000000003 -13.8827244858733003 H
atom -9.2988643413502317 -6.4029048000000000 1.3658570033249740 H
atom -2.6029203013609314 -3.7010951999999993 -15.9677816118940576 H
atom -8.5538126227165101 -1.3509048000000015 -6.0317439161786002 H
atom -3.3479720199946521 -8.7530951999999989 -8.5701806923904833 H
atom -10.7092258215115042 -6.3826967999999988 -0.5075381627904628 H
atom -1.1925588211996583 -3.7213032000000004 -14.0943864457786212 H
atom -7.1434511425552394 -1.3306968000000003 -4.1583487500631637 H
atom -4.7583335001559233 -8.7733032000000009 -10.4435758585059197 H
atom -10.0451062384482199 -7.1980895999999994 -2.5403031696323071 H
atom -1.8566784042629432 -2.9059104000000007 -12.0616214389367755 H
atom -7.8075707256185227 -2.1460896000000003 -2.1255837432213212 H
atom -4.0942139170926417 -7.9579104000000003 -12.4763408653477637 H
atom -4.6452665460501672 -9.6766007999999992 -14.8916232747245125 H
atom -7.2565180966609946 -0.4273992000000011 0.2896986661554287 H
atom -1.3056257753054166 -4.6246007999999996 -9.6463390295600284 H
atom -10.5961588674057463 -5.4793991999999996 -4.9555855790090559 H
atom -2.4767613841481917 -0.2899847999999994 -14.4150805110432252 H
atom -9.4250232585629696 -9.8140152000000000 -0.1868440975258586 H
atom -3.4741309372073905 -5.3419848000000005 -10.1228817932413158 H
atom -8.4276537055037721 -4.7620152000000013 -4.4790428153277686 H
atom -0.6819722600273512 -9.4927079999999986 -15.5071009800710069 H
atom -11.2198123826838110 -0.6112920000000011 0.9051763715019219 H
atom -5.2689200613282310 -4.4407080000000008 -9.0308613242135340 H
atom -6.6328645813829308 -5.6632919999999993 -5.5710632843555503 H
atom -4.0394657077361691 -6.1270655999999999 -0.6052744121483488 H
atom -7.8623189349749936 -3.9769343999999993 -13.9966501964207364 H
atom -1.9114266136194120 -1.0750656000000005 -6.6956878921361946 H
atom -9.9903580290917500 -9.0289344000000007 -7.9062367164328906 H
atom -2.2125417650800077 -5.0752391999999995 -1.5061840847329928 H
atom -9.6892428776311572 -5.0287607999999997 -13.0957405238360902 H
atom -3.7383505562755759 -0.0232391999999997 -5.7947782195515485 H
atom -8.1634340864355863 -10.0807608000000002 -8.8071463890175359 H
atom -0.0618892801421001 -5.9148816000000002 -1.1342818079645591 H
atom -11.8398953625690631 -4.1891183999999990 -13.4676428006045246 H
atom -5.8890030412134822 -0.8628816000000002 -6.1666804963199828 H
atom -6.0127816014976805 -9.2411183999999995 -8.4352441122491015 H
atom -11.6458962728928714 -7.7386535999999992 -14.3879578294848471 H
atom -0.2558883698182912 -2.3653464000000008 -0.2139667790842380 H
atom -6.2067806911738712 -2.6866536000000001 -7.5149290833687772 H
atom -5.6950039515372914 -7.4173463999999996 -7.0869955252003054 H
atom -4.9523325898321158 -5.6663231999999999 -14.8029539296255948 H
atom -6.9494520528790469 -4.4376768000000011 0.2010293210565113 H
atom -0.9985597315234661 -0.6143231999999996 -9.7350083746589462 H
atom -10.9032249111876958 -9.4896767999999998 -4.8669162339101399 H
atom -4.8523575988333398 -4.8468887999999994 -12.6221999629136139 H
atom -7.0494270438778219 -5.2571111999999998 -1.9797246456554711 H
atom -1.0985347225222422 -9.8988887999999999 -11.9157623413709270 H
atom -10.8032499201889198 -0.2051111999999998 -2.6861622671981573 H
atom -6.3257985376009822 -5.5753872000000007 -11.0307818294544688 H
atom -5.5759861051101804 -4.5286128000000012 -3.5711427791146164 H
atom -11.5268784264657587 -0.5233872000000006 -10.8721050833991555 H
atom -0.3749062162454041 -9.5806127999999990 -3.7298195251699271 H
atom -8.3943287085041831 -8.8066464000000000 -14.6752117264237754 H
atom -3.5074559342069787 -1.2973535999999994 0.0732871178546916 H
atom -9.4583482555625586 -3.7546464000000013 -7.2276751864298499 H
atom -2.4434363871486027 -6.3493536000000006 -7.3742494221392336 H
atom -9.8332544718079617 -9.5492904000000003 -13.0535139115997776 H
atom -2.0685301709031978 -0.5547095999999995 -1.5484106969693063 H
atom -8.0194224922587800 -4.4972903999999998 -8.8493730012538503 H
atom -3.8823621504523844 -5.6067095999999994 -5.7525516073152376 H
atom -9.7511321577732559 -8.6601383999999992 -10.8894917318006499 H
atom -2.1506524849379067 -1.4438616000000002 -3.7124328767684354 H
atom -8.1015448062934876 -3.6081384000000005 -11.0133951810529744 H
atom -3.8002398364176759 -6.4958615999999996 -3.5885294275161104 H
atom -8.2134215819349716 -7.0525919999999998 -10.3698171723735264 H
atom -3.6883630607761884 -3.0514080000000012 -4.2321074361955615 H
atom -9.6392553821317701 -2.0005919999999993 -11.5330697404800997 H
atom -2.2625292605793934 -8.1034079999999999 -3.0688548680889820 H
atom -6.5497901245768082 -7.3996643999999998 1.3081018094122590 C
atom -5.3519945181343562 -2.7043356000000003 -15.9100264179813440 C
atom -11.3028868394899344 -2.3476644000000002 -5.9739887222658874 C
atom -0.5988978032212272 -7.7563355999999999 -8.6279358863031970 C
atom -7.7352078749908388 -7.2608354399999993 0.4232605983987787 C
atom -4.1665767677203238 -2.8431645600000000 -15.0251852069678637 C
atom -10.1174690890759020 -2.2088354400000005 -5.0891475112524081 C
atom -1.7843155536352604 -7.8951645599999996 -9.5127770973166754 C
atom -7.3426870174742245 -7.7567397599999994 -0.8407589180106140 C
atom -4.5590976252369382 -2.3472602399999998 -13.7611656905584727 C
atom -10.5099899465925173 -2.7047397600000007 -3.8251279948430166 C
atom -1.3917946961186447 -7.3992602399999994 -10.7767966137260682 C
atom -6.0033791916299375 -8.1731255999999988 -0.8075401418083334 C
atom -5.8984054510812252 -1.9308744000000015 -13.7943844667607518 C
atom -11.8492977724368043 -3.1211255999999992 -3.8583467710452952 C
atom -0.0524868702743576 -6.9828744000000000 -10.7435778375237909 C
atom -5.4488750451260248 -8.6658976799999987 -1.9598743142951007 C
atom -6.4529095975851369 -1.4381023199999994 -12.6420502942739841 C
atom -0.5020172762295573 -3.6138976800000000 -5.3410879899894432 C
atom -11.3997673664816048 -6.4901023200000001 -9.2608366185796402 C
atom -6.2541497940518624 -8.7207623999999999 -3.1258987433108829 C
atom -5.6476348486593002 -1.3832376000000002 -11.4760258652582010 C
atom -11.5985271700148811 -3.6687623999999994 -1.5399881695427438 C
atom -0.3032574726962808 -6.4352375999999998 -13.0619364390263399 C
atom -7.5553719090394722 -8.3003349600000007 -3.1513469807657399 C
atom -4.3464127336716887 -1.8036650399999994 -11.4505776278033427 C
atom -10.2973050550272696 -3.2483349600000002 -1.5145399320878872 C
atom -1.6044795876838924 -6.8556650399999990 -13.0873846764811983 C
atom -8.1545077479535522 -7.7786654399999993 -1.9763758955611095 C
atom -3.7472768947576087 -2.3253345599999999 -12.6255487130079747 C
atom -9.6981692161131896 -2.7266654399999997 -2.6895110172925176 C
atom -2.2036154265979744 -7.3773345599999995 -11.9124135912765663 C
atom -5.5209998600608534 -7.9182016799999992 0.5723515025769721 C
atom -6.3807847826503084 -2.1857983200000000 -15.1742761111460567 C
atom -0.4298924612947280 -2.8662016800000005 -7.8733138068615141 C
atom -11.4718921814164343 -7.2377983199999996 -6.7286108017075712 C
atom -8.9983442791217740 -6.7453293599999995 0.5445131196913434 C
atom -2.9034403635893882 -3.3586706400000006 -15.1464377282604268 C
atom -8.8543326849449677 -1.6933293600000001 -5.2104000325449702 C
atom -3.0474519577661940 -8.4106706400000011 -9.3915245760241142 C
atom -9.8428949173685574 -6.7384586399999993 -0.5931653805327204 C
atom -2.0588897253426039 -3.3655413600000008 -14.0087592280363626 C
atom -8.0097820466981844 -1.6864586399999999 -4.0727215323209105 C
atom -3.8920025960129792 -8.4175413599999995 -10.5292030762481765 C
atom -9.4526353989340599 -7.2273911999999996 -1.8115232926177383 C
atom -2.4491492437771023 -2.8766088000000005 -12.7904013159513461 C
atom -8.4000415651326836 -2.1753912000000004 -2.8543636202358882 C
atom -3.5017430775784804 -7.9286088000000001 -11.7475609883331948 C
atom -4.1452725732098727 -8.2636574399999994 -16.2339064419185242 C
atom -7.7565120695012908 -1.8403425600000007 1.6319818333494398 C
atom -1.8056197481457121 -3.2116574400000002 -8.3040558623660150 C
atom -10.0961648945654510 -6.8923425600000003 -6.2978687462030685 C
atom -3.9167583080698170 -9.2730470399999998 -15.3283634994339995 C
atom -7.9850263346413444 -0.8309529599999997 0.7264388908649149 C
atom -2.0341340132857666 -4.2210470400000011 -9.2095988048505397 C
atom -9.8676506294253965 -5.8829529599999990 -5.3923258037185438 C
atom -2.6116086041501116 -9.7098429599999996 -15.0452298368583133 C
atom -9.2901760385610501 -0.3941570399999998 0.4433052282892280 C
atom -3.3392837172054719 -4.6578429600000009 -9.4927324674262259 C
atom -8.5625009255056916 -5.4461570399999992 -5.1091921411428567 C
atom -1.5443755752382027 -9.1552343999999994 -15.6702113972079236 C
atom -10.3574090674729593 -0.9487656000000009 1.0682867886388396 C
atom -4.4065167461173820 -4.1032343999999998 -8.8677509070766174 C
atom -7.4952678965937807 -6.0007655999999994 -5.7341737014924661 C
atom -1.7163563633253784 -8.0735001599999983 -16.5650009978017465 C
atom -10.1854282793857838 -2.0304998400000014 1.9630763892326619 C
atom -4.2345359580302047 -3.0215001599999995 -7.9729613064827927 C
atom -7.6672486846809571 -7.0824998399999997 -6.6289633020862908 C
atom -3.0254336561771780 -7.5991173600000002 0.4011113345017382 C
atom -8.8763509865339838 -2.5048826399999995 -15.0030359430708220 C
atom -2.9254586651784038 -2.5471173600000014 -7.7020736387862803 C
atom -8.9763259775327580 -7.5568826400000004 -6.8998509697828032 C
atom -3.1780145352967355 -6.4594871999999990 -0.4278188489801196 C
atom -8.7237701074144276 -3.6445128000000011 -14.1741057595889650 C
atom -2.7728777860588458 -1.4074872000000007 -6.8731434553044242 C
atom -9.1289068566523159 -8.6965127999999989 -7.7287811532646575 C
atom -2.0943570435778858 -5.8391016000000002 -0.9712860333699043 C
atom -9.8074275991332787 -4.2648983999999999 -13.6306385751991801 C
atom -3.8565352777776964 -0.7871016000000007 -6.3296762709146392 C
atom -8.0452493649334631 -9.3168983999999995 -8.2722483376544442 C
atom -0.8022993027651599 -6.3352079999999997 -0.7366200478636439 C
atom -11.0994853399460016 -3.7687919999999995 -13.8653045607054413 C
atom -5.1485930185904216 -1.2832080000000010 -6.5643422564209022 C
atom -6.7531916241207401 -8.8207919999999991 -8.0375823521481831 C
atom -0.6155603017210236 -7.4193671999999991 0.0626841092448049 C
atom -11.2862243409901399 -2.6846328000000002 -14.6646087178138895 C
atom -5.3353320196345608 -2.3673672000000003 -7.3636464135293487 C
atom -6.5664526230766027 -7.7366327999999998 -7.2382781950397348 C
atom -6.4898051299775421 -6.9286159199999986 -14.5258146805605488 C
atom -5.4119795127336205 -3.1753840800000015 -0.0761099280085349 C
atom -11.3628718340891997 -1.8766159199999994 -7.3770722322930764 C
atom -0.5389128086219624 -8.2273840800000002 -7.2248523762760071 C
atom -5.5605137850746553 -5.9860137600000005 -14.1620508871234740 C
atom -6.3412708576365056 -4.1179862399999996 -0.4398737214456088 C
atom -0.3903785362809281 -0.9340137599999996 -10.3759114171610651 C
atom -11.5114061064302362 -9.1699862400000001 -4.2260131914080183 C
atom -5.5007668261682463 -5.4889979999999996 -12.8482023355884571 C
atom -6.4010178165429163 -4.6150019999999996 -1.7537222729806254 C
atom -0.4501254951873370 -0.4369980000000012 -11.6897599686960838 C
atom -11.4516591475238254 -9.6670019999999983 -2.9121646398730019 C
atom -6.3687639801611695 -5.9273095199999997 -11.9024246472914026 C
atom -5.5330206625499931 -4.1766904799999995 -2.6994999612776813 C
atom -11.4839129839055722 -0.8753095200000010 -10.0004622655622235 C
atom -0.4178716588055900 -9.2286904799999991 -4.6014623430068609 C
atom -7.3362600537671607 -6.9059829599999984 -12.2134307587219819 C
atom -4.5655245889440037 -3.1980170399999994 -2.3884938498471002 C
atom -10.5164169102995810 -1.8539829600000002 -9.6894561541316442 C
atom -1.3853677324115810 -8.2500170399999995 -4.9124684544374411 C
atom -7.4073137080841471 -7.4245202399999988 -13.5356352986351407 C
atom -4.4944709346270173 -2.6794797600000013 -1.0662893099339426 C
atom -10.4453632559825955 -2.3725202399999996 -8.3672516142184872 C
atom -1.4564213867285669 -7.7314797600000000 -6.2346729943506007 C
atom -8.3524344265618407 -8.4353243999999989 -13.8121226218016115 C
atom -3.5493502161493229 -1.6686756000000011 -0.7898019867674722 C
atom -9.5002425375049029 -3.3833243999999993 -8.0907642910520146 C
atom -2.4015421052062584 -6.7206756000000007 -6.5111603175170716 C
atom -9.2051972962120949 -8.8804055999999996 -12.8464478800055879 C
atom -2.6965873464990682 -1.2235943999999999 -1.7554767285634980 C
atom -8.6474796678546486 -3.8284056000000000 -9.0564390328480400 C
atom -3.2543049748565127 -6.2755943999999992 -5.5454855757210435 C
atom -9.1544956936341446 -8.3519664000000002 -11.5476613011730826 C
atom -2.7472889490770172 -1.7520335999999999 -3.0542633073960035 C
atom -8.6981812704325989 -3.2999663999999997 -10.3552256116805435 C
atom -3.2036033722785642 -6.8040335999999995 -4.2466989968885400 C
atom -8.2436521149274586 -7.3971383999999993 -11.2437624108792900 C
atom -3.6581325277837022 -2.7068615999999999 -3.3581621976897931 C
atom -9.6090248491392831 -2.3451384000000006 -10.6591245019743361 C
atom -2.2927597935718809 -7.7588615999999995 -3.9428001065947504 C
