#=======================================================
# FHI-aims file: pahs_geometry_fix/CORANN12.in
# Created using the Atomic Simulation Environment (ASE)
# Tue May 25 14:20:52 2021
#=======================================================
lattice_vector -0.0000000000000019 -11.6128999999999998 -0.0000000000000007 
lattice_vector -12.8376776855870460 0.0000000000000000 2.7446610867246335 
lattice_vector 0.0000000000000000 0.0000000000000000 -16.2337999999999987 
atom -11.6270846798361873 -7.2719979799999992 -12.9232834137534986 H
atom -1.2105930057508583 -4.3409020200000015 -0.5658554995218685 H
atom -1.2105930057508578 -1.4655479800000011 -8.6827554995218659 H
atom -11.6270846798361891 -10.1473520199999996 -4.8063834137535002 H
atom -12.0802547021374114 -6.0003854299999988 1.4285029026078790 H
atom -0.7574229834496373 -5.6125145699999992 -14.9176418158832469 H
atom -0.7574229834496364 -0.1939354300000005 -6.8007418158832449 H
atom -12.0802547021374131 -11.4189645700000000 -6.6883970973921203 H
atom -11.4447896567008520 -3.5965151300000011 0.1091981588150104 H
atom -1.3928880288861962 -8.0163848699999996 -13.5983370720903789 H
atom -1.3928880288861964 -9.4029651300000001 -5.4814370720903769 H
atom -11.4447896567008520 -2.2099348700000001 -8.0077018411849892 H
atom -10.1289276939281780 -1.6594834100000002 0.2337153974257358 H
atom -2.7087499916588680 -9.9534165899999998 -13.7228543107011021 H
atom -2.7087499916588675 -7.4659334099999999 -5.6059543107011027 H
atom -10.1289276939281798 -4.1469665900000008 -7.8831846025742642 H
atom -8.3059774625748197 -0.2879999200000018 -14.4304068168891604 H
atom -4.5317002230122272 -11.3249000799999990 0.9412679036137941 H
atom -4.5317002230122281 -6.0944499199999989 -7.1756320963862050 H
atom -8.3059774625748197 -5.5184500799999991 -6.3135068168891610 H
atom -7.1416000964920743 -0.3298063599999998 -12.3903817774550848 H
atom -5.6960775890949735 -11.2830936400000006 -1.0987571358202814 H
atom -5.6960775890949735 -6.1362563600000000 -9.2156571358202797 H
atom -7.1416000964920752 -5.4766436399999998 -4.2734817774550855 H
atom -6.6434982022912976 -1.8336769100000017 -9.9871291476200010 H
atom -6.1941794832957520 -9.7792230899999986 -3.5020097656553646 H
atom -6.1941794832957502 -7.6401269099999993 -11.6189097656553635 H
atom -6.6434982022912976 -3.9727730899999996 -1.8702291476200035 H
atom -7.2211936981427138 -3.8310957099999996 -9.0064747587173919 H
atom -5.6164839874443340 -7.7818042900000002 -4.4826641545579724 H
atom -5.6164839874443340 -9.6375457099999995 -12.5995641545579744 H
atom -7.2211936981427138 -1.9753542900000003 -0.8895747587173942 H
atom -8.6436083857057593 -6.2430950400000009 -9.1845101703083039 H
atom -4.1940692998812885 -5.3698049600000015 -4.3046287429670622 H
atom -4.1940692998812876 -0.4366450400000009 -12.4215287429670607 H
atom -8.6436083857057593 -11.1762549599999996 -1.0676101703083061 H
atom -10.1623056559107070 -7.4194818099999997 -10.5270280237487803 H
atom -2.6753720296763412 -4.1934181900000009 -2.9621108895265862 H
atom -2.6753720296763412 -1.6130318100000016 -11.0790108895265860 H
atom -10.1623056559107070 -9.9998681899999990 -2.4101280237487801 H
atom -3.7447505808857433 -6.3615466200000004 -11.6539537210024253 H
atom -9.0929271047013049 -5.2513533800000003 -1.8351851922729423 H
atom -9.0929271047013032 -0.5550966199999995 -9.9520851922729410 H
atom -3.7447505808857424 -11.0578033800000011 -3.5370537210024247 H
atom -5.4085136089378247 -5.3941920500000000 -13.0612363241629108 H
atom -7.4291640766492248 -6.2187079500000007 -0.4279025891124545 H
atom -7.4291640766492248 -11.2006420500000008 -8.5448025891124555 H
atom -5.4085136089378230 -0.4122579499999997 -4.9443363241629132 H
atom -5.8321569725621965 -3.6743215600000001 1.0277432316990016 H
atom -7.0055207130248531 -7.9385784399999997 -14.5168821449743675 H
atom -7.0055207130248531 -9.4807715600000009 -6.3999821449743681 H
atom -5.8321569725621956 -2.1321284399999998 -7.0891567683009997 H
atom -4.7820349378811740 -2.2575477600000000 -0.5003441851950742 H
atom -8.0556427477058730 -9.3553522400000002 -12.9887947280802916 H
atom -8.0556427477058712 -8.0639977599999995 -4.8718947280802922 H
atom -4.7820349378811748 -3.5489022400000012 -8.6172441851950730 H
atom -2.3518625519995475 -1.1972899900000009 -1.3315974889120468 H
atom -10.4858151335875025 -10.4156100100000000 -12.1575414243633197 H
atom -10.4858151335875007 -7.0037399900000006 -4.0406414243633195 H
atom -2.3518625519995480 -4.6091600100000001 -9.4484974889120465 H
atom -0.0616208528908184 -1.2611609400000003 -0.9592302467837209 H
atom -12.7760568326962289 -10.3517390599999999 -12.5299086664916448 H
atom -12.7760568326962289 -7.0676109399999998 -4.4130086664916472 H
atom -0.0616208528908189 -4.5452890600000009 -9.0761302467837215 H
atom -10.8812156063035808 -2.3539348300000009 -12.7856696828922001 H
atom -1.9564620792834670 -9.2589651699999997 -0.7034692303831672 H
atom -1.9564620792834668 -8.1603848300000017 -8.8203692303831644 H
atom -10.8812156063035808 -3.4525151699999999 -4.6687696828921998 H
atom -10.4806800625132652 -3.7811602400000011 -11.0352603287980084 H
atom -2.3569976230737812 -7.8317397600000014 -2.4538785844773585 H
atom -2.3569976230737817 -9.5876102400000001 -10.5707785844773561 H
atom -10.4806800625132652 -2.0252897600000002 -2.9183603287980082 H
atom -11.7464750823121484 -5.5672242600000006 -9.2451530656469583 H
atom -1.0912026032748980 -6.0456757400000010 -4.2439858476284051 H
atom -1.0912026032748989 -11.3736742599999996 -12.3608858476284063 H
atom -11.7464750823121484 -0.2392257400000007 -1.1282530656469594 H
atom -0.9435693098906505 -6.4091595100000003 -11.3096549901257397 H
atom -11.8941083756963994 -5.2037404900000004 -2.1794839231496277 H
atom -11.8941083756963977 -0.6027095099999994 -10.2963839231496248 H
atom -0.9435693098906498 -11.0101904899999994 -3.1927549901257408 H
atom -10.9774981889454839 -6.6084368739999997 -13.1819687087417652 C
atom -1.8601794966415641 -5.0044631260000010 -0.3071702045336010 C
atom -1.8601794966415635 -0.8019868740000013 -8.4240702045335993 C
atom -10.9774981889454839 -10.8109131259999991 -5.0650687087417676 C
atom -11.2274477734838651 -5.8475596659999995 1.9263712866167626 C
atom -1.6102299121031847 -5.7653403340000002 -15.4155101998921289 C
atom -1.6102299121031838 -0.0411096660000011 -7.2986101998921287 C
atom -11.2274477734838634 -11.5717903339999992 -6.1905287133832374 C
atom -10.3591072548307555 -4.7603599679999995 1.5264362507107083 C
atom -2.4785704307562932 -6.8525400319999994 -15.0155751639860746 C
atom -2.4785704307562924 -10.5668099680000012 -6.8986751639860753 C
atom -10.3591072548307555 -1.0460900320000006 -6.5904637492892908 C
atom -9.1771422703187575 -4.6913793420000012 -13.9996730875440267 C
atom -3.6605354152682921 -6.9215206579999995 0.5105341742686600 C
atom -3.6605354152682912 -10.4978293419999993 -7.6063658257313396 C
atom -9.1771422703187557 -1.1150706580000012 -5.8827730875440283 C
atom -10.6313943985420565 -3.6106828679999996 0.6953629483601372 C
atom -2.2062832870449913 -8.0022171320000002 -14.1845018616355052 C
atom -2.2062832870449913 -9.4171328680000013 -6.0676018616355041 C
atom -10.6313943985420565 -2.1957671320000003 -7.4215370516398620 C
atom -9.8656269245967891 -2.4606573810000016 0.7624885505370131 C
atom -2.9720507609902582 -9.1522426189999990 -14.2516274638123814 C
atom -2.9720507609902582 -8.2671073810000006 -6.1347274638123812 C
atom -9.8656269245967891 -3.3457926189999996 -7.3544114494629840 C
atom -8.7552961815703654 -2.3354703190000015 1.6819234011461990 C
atom -4.0823815040166815 -9.2774296809999992 -15.1710623144215653 C
atom -4.0823815040166815 -8.1419203190000005 -7.0541623144215659 C
atom -8.7552961815703672 -3.4709796809999998 -6.4349765988538001 C
atom -8.4102194053817865 -3.5089538640000009 -13.9128269308649575 C
atom -4.4274582802052613 -8.1039461359999994 0.4236880175895917 C
atom -4.4274582802052613 -9.3154038640000003 -7.6932119824104097 C
atom -8.4102194053817847 -2.2974961360000004 -5.7959269308649581 C
atom -8.1435808398521417 -1.1530448409999998 -13.9868790316362279 C
atom -4.6940968457349053 -10.4598551590000000 0.4977401183608622 C
atom -4.6940968457349062 -6.9594948409999997 -7.6191598816391384 C
atom -8.1435808398521434 -4.6534051590000001 -5.8699790316362286 C
atom -7.4584339817723633 -1.1845157999999998 -12.7843328138347214 C
atom -5.3792437038146854 -10.4283842000000000 -0.7048060994406451 C
atom -5.3792437038146863 -6.9909657999999997 -8.8217060994406449 C
atom -7.4584339817723633 -4.6219342000000001 -4.6674328138347212 C
atom -7.2893617666531805 -2.4045670740000014 -12.0253484763468848 C
atom -5.5483159189338664 -9.2083329259999989 -1.4637904369284820 C
atom -5.5483159189338647 -8.2110170740000008 -9.5806904369284815 C
atom -7.2893617666531814 -3.4018829259999999 -3.9084484763468845 C
atom -7.6951607582945885 -3.5394957910000011 -12.6911887073955185 C
atom -5.1425169272924593 -8.0734042090000013 -0.7979502058798466 C
atom -5.1425169272924611 -9.3459457910000001 -8.9148502058798478 C
atom -7.6951607582945885 -2.2669542090000001 -4.5742887073955201 C
atom -7.0186151442641487 -2.6011734710000014 -10.6171589006659080 C
atom -5.8190625413228982 -9.0117265289999988 -2.8719800126094590 C
atom -5.8190625413228965 -8.4076234710000008 -10.9888800126094583 C
atom -7.0186151442641487 -3.2052765289999998 -2.5002589006659077 C
atom -7.3354490295444403 -3.7870828190000001 -9.9726337510455441 C
atom -5.5022286560426075 -7.8258171809999997 -3.5165051622298225 C
atom -5.5022286560426092 -9.5935328190000000 -11.6334051622298222 C
atom -7.3354490295444386 -2.0193671809999998 -1.8557337510455441 C
atom -7.9431846911801305 -4.9016889609999996 -10.6634824231999978 C
atom -4.8944929944069191 -6.7112110389999993 -2.8256564900753673 C
atom -4.8944929944069191 -10.7081389609999995 -10.9425564900753667 C
atom -7.9431846911801287 -0.9047610390000004 -2.5465824232000007 C
atom -8.0095554848146140 -4.7546696469999992 -12.0332239753816328 C
atom -4.8281222007724347 -6.8582303530000006 -1.4559149378937326 C
atom -4.8281222007724347 -10.5611196469999999 -9.5728149378937317 C
atom -8.0095554848146140 -1.0517803530000005 -3.9163239753816335 C
atom -8.7153710039681904 -6.0181531670000012 -10.1543968368335129 C
atom -4.1223066816188556 -5.5947468330000003 -3.3347420764418532 C
atom -4.1223066816188547 -0.2117031669999996 -11.4516420764418516 C
atom -8.7153710039681922 -11.4011968330000002 -2.0374968368335140 C
atom -9.6097720083230396 -6.7099336199999993 -10.9475939309214088 C
atom -3.2279056772640060 -4.9029663800000014 -2.5415449823539578 C
atom -3.2279056772640056 -0.9034836199999997 -10.6584449823539593 C
atom -9.6097720083230413 -10.7094163800000004 -2.8306939309214090 C
atom -9.8328908464985432 -6.3659595219999998 -12.3339856132341339 C
atom -3.0047868390885055 -5.2469404780000000 -1.1551533000412324 C
atom -3.0047868390885046 -0.5595095220000013 -9.2720533000412306 C
atom -9.8328908464985449 -11.0533904779999990 -4.2170856132341363 C
atom -8.9237265128052670 -5.4654952560000005 -12.8437852453959724 C
atom -3.9139511727817817 -6.1474047440000001 -0.6453536678793962 C
atom -3.9139511727817808 -11.2719452559999986 -8.7622536678793939 C
atom -8.9237265128052687 -0.3409547440000019 -4.7268852453959731 C
atom -3.5202195981648243 -5.4729275120000000 -12.1746860994092376 C
atom -9.3174580874222226 -6.1399724880000006 -1.3144528138661282 C
atom -9.3174580874222226 -11.2793775119999999 -9.4313528138661287 C
atom -3.5202195981648234 -0.3335224880000009 -4.0577860994092401 C
atom -4.5097477941698738 -4.9115599259999998 -12.9608569708445032 C
atom -8.3279298914171740 -6.7013400740000000 -0.5282819424308633 C
atom -8.3279298914171740 -10.7180099259999988 -8.6451819424308631 C
atom -4.5097477941698738 -0.8948900740000014 -4.8439569708445029 C
atom -4.2690413375651151 -3.7386570260000012 -13.7743339382205896 C
atom -8.5686363480219310 -7.8742429740000013 0.2851950249452229 C
atom -8.5686363480219310 -9.5451070260000002 -7.8317049750547767 C
atom -4.2690413375651142 -2.0677929740000001 -5.6574339382205903 C
atom -3.0688468507395821 -3.1093539750000017 -13.5299572352184754 C
atom -9.7688308348474635 -8.5035460250000003 0.0408183219431092 C
atom -9.7688308348474635 -8.9158039750000011 -8.0760816780568909 C
atom -3.0688468507395821 -2.6970960249999996 -5.4130572352184760 C
atom -4.9453301980418427 -3.2905152149999997 -14.9730921421719341 C
atom -7.8923474875452051 -8.3223847850000006 1.4839532288965671 C
atom -7.8923474875452069 -9.0969652149999991 -6.6329467711034287 C
atom -4.9453301980418427 -2.5159347850000016 -6.8561921421719356 C
atom -4.3322027117782049 -2.4528767379999996 0.3481277123260942 C
atom -8.5054749738088447 -9.1600232620000011 -13.8372666256014600 C
atom -8.5054749738088429 -8.2593267379999986 -5.7203666256014607 C
atom -4.3322027117782049 -3.3535732620000016 -7.7687722876739054 C
atom -2.9868140903286822 -1.9654833250000001 0.5371115984373535 C
atom -9.8508635952583656 -9.6474166750000006 -14.0262505117127194 C
atom -9.8508635952583656 -7.7719333250000000 -5.9093505117127201 C
atom -2.9868140903286826 -3.8409666749999998 -7.5797884015626460 C
atom -2.4460911062117567 -2.2409413130000009 -14.4580699305354869 C
atom -10.3915865793752928 -9.3719586869999993 0.9689310172601220 C
atom -10.3915865793752928 -8.0473913130000003 -7.1479689827398767 C
atom -2.4460911062117567 -3.5655086870000003 -6.3411699305354885 C
atom -2.0381097093637996 -1.4873802319999996 -0.4415321578715986 C
atom -10.7995679762232477 -10.1255197680000002 -13.0476067554037698 C
atom -10.7995679762232477 -7.2938302320000012 -4.9307067554037696 C
atom -2.0381097093638001 -4.3190697680000003 -8.5584321578715965 C
atom -0.6743632088238873 -1.5190834490000011 -0.2160509751143559 C
atom -12.1633144767631602 -10.0938165509999997 -13.2730879381610105 C
atom -12.1633144767631602 -7.3255334490000008 -5.1561879381610103 C
atom -0.6743632088238878 -4.2873665509999999 -8.3329509751143558 C
atom -0.1193904024759595 -2.0273800819999996 -15.2154154438934608 C
atom -12.7182872831110885 -9.5855199180000010 1.7262765306180941 C
atom -12.7182872831110885 -7.8338300819999995 -6.3906234693819055 C
atom -0.1193904024759598 -3.7790699180000002 -7.0985154438934606 C
atom -1.0502504114578772 -2.2758961420000006 -14.2282490784950575 C
atom -11.7874272741291719 -9.3370038580000010 0.7391101652196912 C
atom -11.7874272741291701 -8.0823461420000005 -7.3777898347803079 C
atom -1.0502504114578775 -3.5305538579999993 -6.1113490784950573 C
atom -11.6349156632243957 -2.5503089689999996 -12.1946596064905961 C
atom -1.2027620223626510 -9.0625910310000002 -1.2944793067847715 C
atom -1.2027620223626510 -8.3567589690000013 -9.4113793067847684 C
atom -11.6349156632243957 -3.2561410310000003 -4.0777596064905977 C
atom -11.3970334957104686 -3.4121022779999994 -11.1393470444276037 C
atom -1.4406441898765781 -8.2007977220000008 -2.3497918688477637 C
atom -1.4406441898765783 -9.2185522779999989 -10.4666918688477626 C
atom -11.3970334957104686 -2.3943477220000018 -3.0224470444276048 C
atom -12.4552432673334081 -3.8463086090000012 -10.2532006610488935 C
atom -0.3824344182536391 -7.7665913909999995 -3.2359382522264744 C
atom -0.3824344182536394 -9.6527586089999993 -11.3528382522264746 C
atom -12.4552432673334081 -1.9601413910000012 -2.1363006610488937 C
atom -0.8080034335308477 -3.1621926699999996 -13.1495190012015506 C
atom -12.0296742520561981 -8.4507073300000002 -0.3396199120738154 C
atom -12.0296742520561981 -8.9686426699999995 -8.4565199120738139 C
atom -0.8080034335308476 -2.6442573300000012 -5.0326190012015530 C
atom -12.5544785158429963 -5.0423211800000001 -9.4464308488485109 C
atom -0.2831991697440523 -6.5705788200000006 -4.0427080644268560 C
atom -0.2831991697440516 -10.8487711800000000 -12.1596080644268536 C
atom -12.5544785158429963 -0.7641288200000009 -1.3295308488485118 C
atom -0.9354815729487288 -5.5493403940000006 -11.7785928906103727 C
atom -11.9021961126383182 -6.0635596060000001 -1.7105460226649907 C
atom -11.9021961126383200 -11.3557903939999996 -9.8274460226649900 C
atom -0.9354815729487279 -0.2571096060000005 -3.6616928906103734 C
atom -2.1865132634091853 -4.9128373450000016 -12.1200555057090611 C
atom -10.6511644221778603 -6.7000626550000009 -1.3690834075663079 C
atom -10.6511644221778621 -10.7192873449999997 -9.4859834075663052 C
atom -2.1865132634091848 -0.8936126550000009 -4.0031555057090609 C
atom -2.0545419368013493 -3.6789667200000009 -12.7229471416805886 C
atom -10.7831357487856963 -7.9339332799999998 -0.7661917715947767 C
atom -10.7831357487856980 -9.4854167199999999 -8.8830917715947759 C
atom -2.0545419368013493 -2.1274832800000003 -4.6060471416805902 C
