#=======================================================
# FHI-aims file: pahs_geometry_fix/CARREU.in
# Created using the Atomic Simulation Environment (ASE)
# Tue May 25 14:20:52 2021
#=======================================================
lattice_vector 7.6188636326451533 0.0000000000000000 -1.2204806213771282 
lattice_vector -2.4427774485902920 10.8937030230585243 -0.4113247160872671 
lattice_vector 0.0000000000000000 0.0000000000000000 22.5537999999999990 
atom 5.2657154832814399 5.1494534189997649 9.4675689870710418 H
atom -0.0896292992265783 5.7442496040587594 11.4544256754645613 H
atom 5.4016522771986359 6.4425359678368119 11.3217219965365032 H
atom -0.2255660931437748 4.4511670552217133 9.6002726659991016 H
atom 3.9070088638260310 8.2051371169676806 11.6478014911383010 H
atom 1.2690773202288304 2.6885659060908438 9.2741931713973020 H
atom 2.2480301414966624 8.5940423148908707 10.1617920309640883 H
atom 2.9280560425581985 2.2996607081676546 10.7602026315715147 H
atom 1.5296836025955571 9.8065114613572835 7.3502637144762755 H
atom 3.6464025814593048 1.0871915617012406 13.5717309480593276 H
atom 2.4316342582604058 0.5653831868967374 8.2091756345766314 H
atom 2.7444519257944546 10.3283198361617874 12.7128190279589735 H
atom 0.5465684014454999 0.0904177350913858 9.4302519866260166 H
atom 4.6295177826093612 10.8032852879671388 11.4917426759095864 H
atom 5.3284162052243467 8.8315250407935455 8.4757884925809730 H
atom -0.1523300211694845 2.0621779822649784 12.4462061699546300 H
atom -0.7603160967097552 7.1756821812886491 9.2280822282919051 H
atom 5.9364022807646162 3.7180208417698744 11.6939124342436980 H
atom -0.3046789983488877 7.1789502921955677 6.1597074016565880 H
atom 5.4807651824037489 3.7147527308629571 14.7622872608790150 H
atom -0.7393606896901577 8.5330375779617427 4.0343239861346278 H
atom 5.9154468737450188 2.3606654450967821 16.8876706764009761 H
atom -2.2648560909468567 10.1104457757006170 4.7759374468129936 H
atom 7.4409422750017180 0.7832572473579079 16.1460572157226103 H
atom 3.2699861415913856 9.4524661131078815 4.2760866122888972 H
atom 1.9061000424634766 1.4412369099506428 16.6459080502467067 H
atom 2.6424190149709763 7.2497593618454479 4.1284320573484568 H
atom 2.5336671690838859 3.6439436612130764 16.7935626051871481 H
atom 4.1501467521277311 5.6734405344088801 3.3940953296276493 H
atom 1.0259394319271296 5.2202624886496451 17.5278993329079533 H
atom 5.4687268913954536 7.2170782527762718 0.7280511615871811 H
atom -0.2926407073405919 3.6766247702822521 20.1939435009484214 H
atom 4.1029872595368611 7.5961791179787097 -1.0928991060791606 H
atom 1.0730989245180005 3.2975239050798155 22.0148937686147654 H
atom 3.4003094954105566 5.8575441154985679 20.1633960797138485 H
atom 1.7757766886443047 5.0361589075599555 0.7585985828217576 H
atom 3.4565688427768553 3.4729125237510572 19.5700181830878321 H
atom 1.7195173412780056 7.4207904993074667 1.3519764794477709 H
atom 4.1577422290856978 1.3856790245330444 19.9678313316760132 H
atom 1.0183439549691637 9.5080239985254806 0.9541633308595908 H
atom 3.0431144132532673 10.6714714813881315 20.9079156847683336 H
atom 2.1329717708015941 0.2222315416703939 0.0140789777672725 H
atom 4.3969027933465181 10.2335446198611777 0.1384624719520895 H
atom 0.7791833907083435 0.6601584031973465 20.7835321905835144 H
atom 0.0737140522111798 1.0643147853528179 3.0402413097618117 H
atom 5.1023721318436808 9.8293882377057056 17.8817533527737922 H
atom 2.5086985194480063 3.0349856622241052 1.7922791059896215 H
atom 2.6673876646068559 7.8587173608344196 19.1297155565459818 H
atom 4.1729443982049093 1.4673817972059831 1.6637337215713000 H
atom 1.0031417858499529 9.4263212258525400 19.2582609409643055 H
atom 2.0631465689861610 10.8795412091285488 2.9614206588097631 H
atom 3.1129396150687003 0.0141618139299761 17.9605740037258421 H
atom 3.1574776616822913 0.0533791448129868 5.2347174303982866 H
atom 2.0186085223725700 10.8403238782455382 15.6872772321373155 H
atom 1.4812449730139681 1.6438597861795314 5.3950727854720641 H
atom 3.6948412110408935 9.2498432368789931 15.5269218770635398 H
atom 2.8313709032960124 3.8792476465111410 5.3411222627363149 H
atom 2.3447152807588485 7.0144553765473843 15.5808723997992900 H
atom 5.3823024545936624 5.0372482778622611 5.6500784241902169 H
atom -0.2062162705388001 5.8564547451962623 15.2719162383453870 H
atom 6.8055200690048547 3.3247581626374618 5.0814014528032931 H
atom -1.6294338849499930 7.5689448604210625 15.8405932097323099 H
atom 6.8061872930232612 1.3715172106030684 6.2784700220647878 H
atom -1.6301011089684005 9.5221858124554561 14.6435246404708153 H
atom 5.4222369766967482 1.1590900016534269 8.0990959227852510 H
atom -0.2461507926418870 9.7346130214050977 12.8228987397503520 H
atom 3.9606926190928302 2.8454352296228866 8.6487743010947700 H
atom 1.2153935649620311 8.0482677934356381 12.2732203614408313 H
atom 3.6017731497696848 6.0055895395819334 8.6335650336838050 C
atom 1.5743130342851761 4.8881134834765900 12.2884296288517980 C
atom 4.6384262932713218 5.8233378880061650 9.5991470829699548 C
atom 0.5376598907835390 5.0703651350523602 11.3228475795656482 C
atom 4.7324693141846312 6.6033270244571556 10.6964788733634926 C
atom 0.4436168698702300 4.2903759986013696 10.2255157891721105 C
atom 3.8224032009373152 7.6582732252101424 10.8987317847873406 C
atom 1.3536829831175456 3.2354297978483815 10.0232628777482624 C
atom 2.8295064152657208 7.8832281926363015 10.0154645582644903 C
atom 2.3465797687891410 3.0104748304222229 10.9065301042711145 C
atom 2.6446701295500583 7.0630412920302250 8.8648199202133533 C
atom 2.5314160545048030 3.8306617310282998 12.0571747423222497 C
atom 1.5651466768013182 7.2394103439735424 7.9949496698778777 C
atom 3.6109395072535437 3.6542926790849823 12.9270449926577253 C
atom 0.5571960167895793 8.3163618248331090 8.2611054669560300 C
atom 4.6188901672652820 2.5773411982254162 12.6608891955795730 C
atom 0.7613955740441468 9.6006204742214774 7.8306482760355394 C
atom 4.4146906100107151 1.2930825488370468 13.0913463865000637 C
atom -0.1605531329992537 10.5930368196221103 8.1032390794424103 C
atom 5.3366393170541153 0.3006662034364153 12.8187555830931927 C
atom -1.2888754692264675 10.3108899113248942 8.8162957427724535 C
atom 6.4649616532813292 0.5828131117336310 12.1056989197631513 C
atom -1.5145405352367520 9.0374160279293516 9.2254898957774607 C
atom 6.6906267192916129 1.8562869951291725 11.6965047667581441 C
atom -0.5925918281933512 8.0449996825287204 8.9445541863705884 C
atom 5.7686780122482126 2.8487033405298043 11.9774404761650128 C
atom 1.4084341305641432 6.3889389489633635 6.8792449387976085 C
atom 3.7676520534907181 4.5047640740951609 14.0427497237379946 C
atom 0.3208223387695574 6.5096411784588515 6.0001118854390576 C
atom 4.8552638452853039 4.3840618445996729 14.9218827770965472 C
atom 0.1346147733319614 5.6751835268925683 4.9023865731388216 C
atom 5.0414714107228997 5.2185194961659560 16.0196080893967832 C
atom -0.9465730924325436 5.8385890722384470 3.9604382375883169 C
atom 6.1226592764874050 5.0551139508200773 16.9615564249472861 C
atom 5.6870347273858082 6.9230572081839234 3.0546999532468333 C
atom -0.5109485433309469 3.9706458148746013 17.8672947092887711 C
atom -1.5859131367396098 8.2650524835945021 4.3107936740942527 C
atom 6.7619993207944704 2.6286505394640218 16.6112009884413503 C
atom 5.1184581864380228 9.2106259059959825 3.5367951626517211 C
atom 0.0576279976168381 1.6830771170625420 17.3851994998838819 C
atom 3.8680371652050667 8.8206313377704877 3.9487483026014689 C
atom 1.3080490188497946 2.0730716852880371 16.9732463599341337 C
atom 3.5003125980833332 7.5079401234919354 3.8790602348876573 C
atom 1.6757735859715281 3.3857628995665894 17.0429344276479462 C
atom 4.4056913243203670 6.5656348119973726 3.4367292502217497 C
atom 0.7703948597344947 4.3280682110611517 17.4852654123138542 C
atom -1.0976857519547669 4.9495539685266401 2.9120838082515466 C
atom 6.2737719360096280 5.9441490545318834 18.0099108542840582 C
atom 5.6358160573926792 5.2181926850752633 0.5310033646708493 C
atom -0.4597298733378182 5.6755103379832601 20.3909912978647547 C
atom 5.2025319532110190 6.4980938532544101 0.2002805237081972 C
atom -0.0264457691561580 4.3956091698041151 20.7217141388274051 C
atom 4.3807512889140270 6.7312190979478626 -0.8959412664569802 C
atom 0.7953348951408346 4.1624839251106618 21.8179359289925863 C
atom 3.9817289600022265 5.6974066810596087 20.8718902165497262 C
atom 1.1943572240526348 5.1962963419989157 0.0501044459858770 C
atom 4.4291818957294771 4.4086816134317850 21.1101016475382046 C
atom 0.7469042883253840 6.4850214096267402 -0.1881069850026026 C
atom 5.2950846121300339 4.1622660510502003 -0.3438672074984255 C
atom -0.1189984280751728 6.7314369720083240 21.2658618700340298 C
atom 4.0281128377747741 3.3160432002190148 20.2863941012545403 C
atom 1.1479733462800863 7.5776598228395091 0.6356005612810642 C
atom 4.4518654845527310 2.0752504258926487 20.5187809945485746 C
atom 0.7242206995021302 8.8184525971658747 0.4032136679870276 C
atom 5.3510217730738150 1.7756735927585396 -0.9580240516134055 C
atom -0.1749355890189538 9.1180294302999840 21.8800187141490063 C
atom 5.7750133498986624 0.4760548221076575 -0.6922467857961566 C
atom -0.5989271658438013 10.4176482009508664 21.6142414483317609 C
atom 6.6069837205070012 0.2178740604611705 0.3496085668431954 C
atom -1.4308975364521388 10.6758289625973539 20.5723860956924085 C
atom 7.1109846238363055 1.2592031324353348 1.1200108450831072 C
atom -1.9348984397814437 9.6344998906231893 19.8019838174524949 C
atom 6.7699290967939865 2.5864919087647853 0.8736420432168842 C
atom -1.5938429127391249 8.3072111142937377 20.0483526193187203 C
atom 5.8106946503917882 2.8414045595043551 -0.1358578615685057 C
atom -0.6346084663369259 8.0522984635541697 21.0578525241041099 C
atom -0.3322904533659907 3.7073450128072771 2.9116716219209793 C
atom 5.5083766374208523 7.1863580102512481 18.0103230406146224 C
atom 0.7956755869036503 3.6037458970579905 3.7057205738712855 C
atom 4.3804105971512115 7.2899571260005338 17.2162740886643206 C
atom 1.8062063403024919 2.5084929951196866 3.5974743464404355 C
atom 3.3698798437523698 8.3852100279388377 17.3245203160951675 C
atom 2.6313298503776732 2.4371392403186531 2.4946505553405562 C
atom 2.5447563336771881 8.4565637827398703 18.4273441071950472 C
atom 3.6277242933943898 1.5000629062751587 2.4164836972922630 C
atom 1.5483618906604715 9.3936401167833647 18.5055109652433423 C
atom 3.8261068753486089 0.6187623317097242 3.4327579607615859 C
atom 1.3499793087062524 10.2749406913488013 17.4892367017740185 C
atom 3.0259862759753995 0.6601584031973465 4.5434818753394000 C
atom 2.1500999080794623 10.2335446198611777 16.3785127871962040 C
atom 2.0176644303081153 1.6096535586871277 4.6352745279570060 C
atom 3.1584217537467456 9.2840494643713960 16.2867201345785979 C
atom 1.0798114943247832 4.6096704342072146 4.6858119840176577 C
atom 4.0962746897300777 6.2840325888513098 16.2361826785179453 C
atom 2.1900131948452048 4.5275319134133527 5.5223988973336127 C
atom 2.9860729892096574 6.3661711096451707 15.3995957652019904 C
atom 2.3905104296973425 5.3696151570957777 6.6195286530276949 C
atom 2.7855757543575188 5.5240878659627475 14.3024660095079081 C
atom 3.4940768825819464 5.1981482715128360 7.4998461911903869 C
atom 1.6820093014729154 5.6955547515456884 13.4221484713452153 C
atom 4.4914634699601272 4.1241380904694962 7.1977266532466819 C
atom 0.6846227140947349 6.7695649325890281 13.7242680092889220 C
atom 5.3694498374187347 4.2485441789928249 6.1423791091072237 C
atom -0.1933636533638731 6.6451588440656995 14.7796155534283802 C
atom 6.2278714450243058 3.2234467245230172 5.8045621396274241 C
atom -1.0517852609694445 7.6702562985355067 15.1174325229081798 C
atom 6.2363895188057095 2.0676248337765077 6.5189617524475896 C
atom -1.0603033347508493 8.8260781892820166 14.4030329100880135 C
atom 5.4024855986100979 1.9369003974998058 7.5907180494426649 C
atom -0.2263994145552368 8.9568026255587192 13.3312766130929372 C
atom 4.5317622220317455 2.9523024562790905 7.9224240291004016 C
atom 0.6443239620231155 7.9414005667794338 12.9995706334352032 C
