# 
# This is the geometry file that corresponds to the current relaxation step.
# If you do not want this file to be written, set the "write_restart_geometry" flag to .false.
#  aims_uuid : 791BC91A-46FC-4B3E-A1F7-42B996871EFC                                
# 
lattice_vector      7.33490000      0.00000000      0.00000000
lattice_vector      0.00000000     17.63700000      0.00000000
lattice_vector      0.00000000      0.00000000     24.66150000
atom       0.67821311      6.17242072      6.42431441 H
atom       6.65668690     11.46457927     18.23718559 H
atom       2.98923690     11.46457927     18.75506441 H
atom       4.34566311      6.17242072      5.90643559 H
atom       6.65668687     14.99092070      5.90643560 H
atom       0.67821312      2.64607930     18.75506440 H
atom       4.34566312      2.64607930     18.23718560 H
atom       2.98923687     14.99092070      6.42431440 H
atom       0.77955147      3.85202845      5.82533318 H
atom       6.55534853     13.78497154     18.83616683 H
atom       2.88789853     13.78497154     18.15608317 H
atom       4.44700147      3.85202845      6.50541682 H
atom       6.55534853     12.67052841      6.50541681 H
atom       0.77955147      4.96647159     18.15608319 H
atom       4.44700147      4.96647159     18.83616681 H
atom       2.88789853     12.67052841      5.82533319 H
atom       0.89518485      1.62094025      5.66015303 H
atom       6.43971515     16.01605975     19.00134697 H
atom       2.77226515     16.01605975     17.99090303 H
atom       4.56263485      1.62094025      6.67059697 H
atom       6.43971517     10.43944022      6.67059699 H
atom       0.89518484      7.19755978     17.99090301 H
atom       4.56263484      7.19755978     19.00134699 H
atom       2.77226517     10.43944022      5.66015301 H
atom       1.58637599     16.90750753      5.79713503 H
atom       5.74852401      0.72949247     18.86436497 H
atom       2.08107401      0.72949247     18.12788503 H
atom       5.25382599     16.90750753      6.53361497 H
atom       5.74852402      8.08900752      6.53361497 H
atom       1.58637598      9.54799248     18.12788503 H
atom       5.25382598      9.54799248     18.86436497 H
atom       2.08107402      8.08900752      5.79713503 H
atom       0.95250411     15.53264065      7.78227587 H
atom       6.38239588      2.10435935     16.87922412 H
atom       2.71494588      2.10435935     20.11302588 H
atom       4.61995411     15.53264065      4.54847413 H
atom       6.38239587      6.71414066      4.54847413 H
atom       0.95250414     10.92285934     20.11302589 H
atom       4.61995414     10.92285934     16.87922411 H
atom       2.71494587      6.71414066      7.78227587 H
atom       7.02081175     16.54380186      9.62946557 H
atom       0.31408826      1.09319813     15.03203443 H
atom       3.98153826      1.09319813     21.96021557 H
atom       3.35336175     16.54380186      2.70128443 H
atom       0.31408825      7.72530188      2.70128442 H
atom       7.02081175      9.91169812     21.96021558 H
atom       3.35336175      9.91169812     15.03203442 H
atom       3.98153825      7.72530188      9.62946558 H
atom       6.54280474      0.05118745     11.53837209 H
atom       0.79209526     17.58581255     13.12312789 H
atom       4.45954526     17.58581255     23.86912211 H
atom       2.87535474      0.05118745      0.79237791 H
atom       0.79209526      8.86968745      0.79237791 H
atom       6.54280473      8.76731255     23.86912211 H
atom       2.87535473      8.76731255     13.12312789 H
atom       4.45954526      8.86968745     11.53837209 H
atom       6.09968116      1.57685151     13.35087011 H
atom       1.23521884     16.06014848     11.31062989 H
atom       4.90266884     16.06014848      1.02012011 H
atom       2.43223116      1.57685151     23.64137989 H
atom       1.23521886     10.39535149     23.64137990 H
atom       6.09968114      7.24164850      1.02012010 H
atom       2.43223114      7.24164850     11.31062990 H
atom       4.90266886     10.39535149     13.35087010 H
atom       5.74143367      3.28694061     14.81423924 H
atom       1.59346633     14.35005938      9.84726074 H
atom       5.26091633     14.35005938      2.48348926 H
atom       2.07398367      3.28694061     22.17801076 H
atom       1.59346632     12.10544060     22.17801077 H
atom       5.74143367      5.53155939      2.48348925 H
atom       2.07398367      5.53155939      9.84726075 H
atom       5.26091632     12.10544060     14.81423923 H
atom       6.07396874      5.16087589     16.37159286 H
atom       1.26093126     12.47612411      8.28990714 H
atom       4.92838126     12.47612411      4.04084286 H
atom       2.40651874      5.16087589     20.62065714 H
atom       1.26093125     13.97937584     20.62065715 H
atom       6.07396875      3.65762416      4.04084285 H
atom       2.40651875      3.65762416      8.28990715 H
atom       4.92838125     13.97937584     16.37159285 H
atom       6.33172387      7.47714230     15.50878612 H
atom       1.00317613     10.15985770      9.15271387 H
atom       4.67062613     10.15985770      3.17803613 H
atom       2.66427387      7.47714230     21.48346388 H
atom       1.00317613     16.29564228     21.48346386 H
atom       6.33172388      1.34135773      3.17803615 H
atom       2.66427388      1.34135773      9.15271385 H
atom       4.67062613     16.29564228     15.50878614 H
atom       6.30417974      7.89477771     13.07613851 H
atom       1.03072026      9.74222229     11.58536149 H
atom       4.69817026      9.74222229      0.74538851 H
atom       2.63672974      7.89477771     23.91611149 H
atom       1.03072025     16.71327771     23.91611149 H
atom       6.30417975      0.92372228      0.74538852 H
atom       2.63672975      0.92372228     11.58536148 H
atom       4.69817025     16.71327771     13.07613851 H
atom       6.95625994      8.10104115     10.90526470 H
atom       0.37864006      9.53595886     13.75623528 H
atom       4.04609006      9.53595886     23.23601472 H
atom       3.28880994      8.10104115      1.42548530 H
atom       0.37864005     16.91954115      1.42548530 H
atom       6.95625995      0.71745886     23.23601472 H
atom       3.28880995      0.71745886     13.75623528 H
atom       4.04609005     16.91954115     10.90526470 H
atom       0.20096843      7.96446481      8.56615357 H
atom       7.13393156      9.67253519     16.09534642 H
atom       3.46648156      9.67253519     20.89690358 H
atom       3.86841843      7.96446481      3.76459643 H
atom       7.13393157     16.78296481      3.76459644 H
atom       0.20096844      0.85403519     20.89690357 H
atom       3.86841844      0.85403519     16.09534643 H
atom       3.46648157     16.78296481      8.56615356 H
atom       0.13679589      5.46288438      7.04702362 C
  constrain_relaxation .true.
atom       7.19810412     12.17411562     17.61447637 C
  constrain_relaxation .true.
atom       3.53065412     12.17411562     19.37777362 C
  constrain_relaxation .true.
atom       3.80424588      5.46288438      5.28372638 C
  constrain_relaxation .true.
atom       7.19810412     14.28138438      5.28372638 C
  constrain_relaxation .true.
atom       0.13679589      3.35561562     19.37777362 C
  constrain_relaxation .true.
atom       3.80424589      3.35561562     17.61447637 C
  constrain_relaxation .true.
atom       3.53065412     14.28138438      7.04702363 C
  constrain_relaxation .true.
atom       0.19276117      4.12247238      6.70200924 C
  constrain_relaxation .true.
atom       7.14213883     13.51452762     17.95949076 C
  constrain_relaxation .true.
atom       3.47468883     13.51452762     19.03275924 C
  constrain_relaxation .true.
atom       3.86021117      4.12247238      5.62874076 C
  constrain_relaxation .true.
atom       7.14213883     12.94097238      5.62874076 C
  constrain_relaxation .true.
atom       0.19276117      4.69602762     19.03275924 C
  constrain_relaxation .true.
atom       3.86021117      4.69602762     17.95949076 C
  constrain_relaxation .true.
atom       3.47468883     12.94097238      6.70200924 C
  constrain_relaxation .true.
atom       6.94673709      3.09441165      7.53088225 C
  constrain_relaxation .true.
atom       0.38816291     14.54258835     17.13061774 C
  constrain_relaxation .true.
atom       4.05561291     14.54258835     19.86163226 C
  constrain_relaxation .true.
atom       3.27928709      3.09441165      4.79986775 C
  constrain_relaxation .true.
atom       0.38816291     11.91291165      4.79986775 C
  constrain_relaxation .true.
atom       6.94673709      5.72408835     19.86163225 C
  constrain_relaxation .true.
atom       3.27928709      5.72408835     17.13061774 C
  constrain_relaxation .true.
atom       4.05561291     11.91291165      7.53088226 C
  constrain_relaxation .true.
atom       7.25626987      1.65752526      7.58390448 C
  constrain_relaxation .true.
atom       0.07863013     15.97947474     17.07759552 C
  constrain_relaxation .true.
atom       3.74608013     15.97947474     19.91465448 C
  constrain_relaxation .true.
atom       3.58881987      1.65752526      4.74684552 C
  constrain_relaxation .true.
atom       0.07863013     10.47602526      4.74684552 C
  constrain_relaxation .true.
atom       7.25626987      7.16097474     19.91465448 C
  constrain_relaxation .true.
atom       3.58881987      7.16097474     17.07759552 C
  constrain_relaxation .true.
atom       3.74608013     10.47602526      7.58390448 C
  constrain_relaxation .true.
atom       0.63703607      1.03846656      6.54294256 C
  constrain_relaxation .true.
atom       6.69786394     16.59853344     18.11855743 C
  constrain_relaxation .true.
atom       3.03041394     16.59853344     18.87369257 C
  constrain_relaxation .true.
atom       4.30448606      1.03846656      5.78780744 C
  constrain_relaxation .true.
atom       6.69786394      9.85696656      5.78780744 C
  constrain_relaxation .true.
atom       0.63703607      7.78003344     18.87369256 C
  constrain_relaxation .true.
atom       4.30448607      7.78003344     18.11855743 C
  constrain_relaxation .true.
atom       3.03041394      9.85696656      6.54294257 C
  constrain_relaxation .true.
atom       1.01991785     17.34986964      6.61421430 C
  constrain_relaxation .true.
atom       6.31498216      0.28713036     18.04728570 C
  constrain_relaxation .true.
atom       2.64753216      0.28713036     18.94496430 C
  constrain_relaxation .true.
atom       4.68736785     17.34986964      5.71653570 C
  constrain_relaxation .true.
atom       6.31498215      8.53136964      5.71653570 C
  constrain_relaxation .true.
atom       1.01991785      9.10563036     18.94496430 C
  constrain_relaxation .true.
atom       4.68736785      9.10563036     18.04728570 C
  constrain_relaxation .true.
atom       2.64753216      8.53136964      6.61421430 C
  constrain_relaxation .true.
atom       0.67290373     16.58407110      7.73039379 C
  constrain_relaxation .true.
atom       6.66199627      1.05292890     16.93110621 C
  constrain_relaxation .true.
atom       2.99454627      1.05292890     20.06114379 C
  constrain_relaxation .true.
atom       4.34035373     16.58407110      4.60035621 C
  constrain_relaxation .true.
atom       6.66199627      7.76557110      4.60035621 C
  constrain_relaxation .true.
atom       0.67290373      9.87142890     20.06114379 C
  constrain_relaxation .true.
atom       4.34035373      9.87142890     16.93110621 C
  constrain_relaxation .true.
atom       2.99454627      7.76557110      7.73039379 C
  constrain_relaxation .true.
atom       7.29756536     17.15586264      8.77258878 C
  constrain_relaxation .true.
atom       0.03733464      0.48113736     15.88891122 C
  constrain_relaxation .true.
atom       3.70478464      0.48113736     21.10333878 C
  constrain_relaxation .true.
atom       3.63011536     17.15586264      3.55816122 C
  constrain_relaxation .true.
atom       0.03733464      8.33736264      3.55816122 C
  constrain_relaxation .true.
atom       7.29756536      9.29963736     21.10333878 C
  constrain_relaxation .true.
atom       3.63011536      9.29963736     15.88891122 C
  constrain_relaxation .true.
atom       3.70478464      8.33736264      8.77258878 C
  constrain_relaxation .true.
atom       6.91717744      0.87091506      8.74792728 C
  constrain_relaxation .true.
atom       0.41772256     16.76608494     15.91357272 C
  constrain_relaxation .true.
atom       4.08517256     16.76608494     21.07867728 C
  constrain_relaxation .true.
atom       3.24972744      0.87091506      3.58282272 C
  constrain_relaxation .true.
atom       0.41772256      9.68941506      3.58282272 C
  constrain_relaxation .true.
atom       6.91717745      7.94758494     21.07867728 C
  constrain_relaxation .true.
atom       3.24972745      7.94758494     15.91357272 C
  constrain_relaxation .true.
atom       4.08517256      9.68941506      8.74792728 C
  constrain_relaxation .true.
atom       6.28080152      1.50161418      9.91466284 C
  constrain_relaxation .true.
atom       1.05409848     16.13538582     14.74683715 C
  constrain_relaxation .true.
atom       4.72154848     16.13538582     22.24541285 C
  constrain_relaxation .true.
atom       2.61335152      1.50161418      2.41608716 C
  constrain_relaxation .true.
atom       1.05409848     10.32011418      2.41608716 C
  constrain_relaxation .true.
atom       6.28080152      7.31688582     22.24541284 C
  constrain_relaxation .true.
atom       2.61335152      7.31688582     14.74683715 C
  constrain_relaxation .true.
atom       4.72154848     10.32011418      9.91466285 C
  constrain_relaxation .true.
atom       6.26429800      1.07250597     11.28436255 C
  constrain_relaxation .true.
atom       1.07060200     16.56449403     13.37713745 C
  constrain_relaxation .true.
atom       4.73805200     16.56449403     23.61511256 C
  constrain_relaxation .true.
atom       2.59684800      1.07250597      1.04638745 C
  constrain_relaxation .true.
atom       1.07060200      9.89100597      1.04638745 C
  constrain_relaxation .true.
atom       6.26429800      7.74599403     23.61511255 C
  constrain_relaxation .true.
atom       2.59684800      7.74599403     13.37713744 C
  constrain_relaxation .true.
atom       4.73805200      9.89100597     11.28436256 C
  constrain_relaxation .true.
atom       6.01205079      1.95611967     12.33296953 C
  constrain_relaxation .true.
atom       1.32284922     15.68088033     12.32853047 C
  constrain_relaxation .true.
atom       4.99029922     15.68088033      0.00221954 C
  constrain_relaxation .true.
atom       2.34460079      1.95611967     24.65928046 C
  constrain_relaxation .true.
atom       1.32284922     10.77461967     24.65928046 C
  constrain_relaxation .true.
atom       6.01205078      6.86238033      0.00221954 C
  constrain_relaxation .true.
atom       2.34460079      6.86238033     12.32853047 C
  constrain_relaxation .true.
atom       4.99029922     10.77461967     12.33296953 C
  constrain_relaxation .true.
atom       5.75437575      3.35173548     12.10312436 C
  constrain_relaxation .true.
atom       1.58052425     14.28526452     12.55837564 C
  constrain_relaxation .true.
atom       5.24797425     14.28526452     24.43387436 C
  constrain_relaxation .true.
atom       2.08692575      3.35173548      0.22762565 C
  constrain_relaxation .true.
atom       1.58052425     12.17023548      0.22762565 C
  constrain_relaxation .true.
atom       5.75437575      5.46676452     24.43387435 C
  constrain_relaxation .true.
atom       2.08692575      5.46676452     12.55837564 C
  constrain_relaxation .true.
atom       5.24797425     12.17023548     12.10312436 C
  constrain_relaxation .true.
atom       5.85464383      4.48879287     13.03088998 C
  constrain_relaxation .true.
atom       1.48025617     13.14820713     11.63061002 C
  constrain_relaxation .true.
atom       5.14770617     13.14820713      0.70013999 C
  constrain_relaxation .true.
atom       2.18719383      4.48879287     23.96136001 C
  constrain_relaxation .true.
atom       1.48025617     13.30729287     23.96136001 C
  constrain_relaxation .true.
atom       5.85464383      4.32970713      0.70013999 C
  constrain_relaxation .true.
atom       2.18719383      4.32970713     11.63061002 C
  constrain_relaxation .true.
atom       5.14770617     13.30729287     13.03088998 C
  constrain_relaxation .true.
atom       5.87283438      4.29390402     14.42204520 C
  constrain_relaxation .true.
atom       1.46206562     13.34309598     10.23945480 C
  constrain_relaxation .true.
atom       5.12951562     13.34309598      2.09129520 C
  constrain_relaxation .true.
atom       2.20538438      4.29390402     22.57020480 C
  constrain_relaxation .true.
atom       1.46206562     13.11240402     22.57020480 C
  constrain_relaxation .true.
atom       5.87283438      4.52459598      2.09129520 C
  constrain_relaxation .true.
atom       2.20538438      4.52459598     10.23945480 C
  constrain_relaxation .true.
atom       5.12951562     13.11240402     14.42204520 C
  constrain_relaxation .true.
atom       6.05202599      5.34965484     15.30024121 C
  constrain_relaxation .true.
atom       1.28287401     12.28734516      9.36125879 C
  constrain_relaxation .true.
atom       4.95032401     12.28734516      2.96949122 C
  constrain_relaxation .true.
atom       2.38457599      5.34965484     21.69200878 C
  constrain_relaxation .true.
atom       1.28287401     14.16815484     21.69200879 C
  constrain_relaxation .true.
atom       6.05202599      3.46884516      2.96949122 C
  constrain_relaxation .true.
atom       2.38457599      3.46884516      9.36125879 C
  constrain_relaxation .true.
atom       4.95032401     14.16815484     15.30024121 C
  constrain_relaxation .true.
atom       6.20239144      6.64826715     14.81391643 C
  constrain_relaxation .true.
atom       1.13250856     10.98873285      9.84758357 C
  constrain_relaxation .true.
atom       4.79995856     10.98873285      2.48316644 C
  constrain_relaxation .true.
atom       2.53494144      6.64826715     22.17833356 C
  constrain_relaxation .true.
atom       1.13250856     15.46676715     22.17833357 C
  constrain_relaxation .true.
atom       6.20239144      2.17023285      2.48316644 C
  constrain_relaxation .true.
atom       2.53494144      2.17023285      9.84758357 C
  constrain_relaxation .true.
atom       4.79995856     15.46676715     14.81391643 C
  constrain_relaxation .true.
atom       6.18566787      6.87895911     13.45136856 C
  constrain_relaxation .true.
atom       1.14923213     10.75804089     11.21013144 C
  constrain_relaxation .true.
atom       4.81668213     10.75804089      1.12061856 C
  constrain_relaxation .true.
atom       2.51821787      6.87895911     23.54088144 C
  constrain_relaxation .true.
atom       1.14923213     15.69745911     23.54088144 C
  constrain_relaxation .true.
atom       6.18566787      1.93954089      1.12061856 C
  constrain_relaxation .true.
atom       2.51821787      1.93954089     11.21013144 C
  constrain_relaxation .true.
atom       4.81668213     15.69745911     13.45136856 C
  constrain_relaxation .true.
atom       6.02422672      5.83449597     12.52631569 C
  constrain_relaxation .true.
atom       1.31067328     11.80250403     12.13518431 C
  constrain_relaxation .true.
atom       4.97812328     11.80250403      0.19556570 C
  constrain_relaxation .true.
atom       2.35677672      5.83449597     24.46593430 C
  constrain_relaxation .true.
atom       1.31067328     14.65299597     24.46593430 C
  constrain_relaxation .true.
atom       6.02422672      2.98400403      0.19556570 C
  constrain_relaxation .true.
atom       2.35677672      2.98400403     12.13518430 C
  constrain_relaxation .true.
atom       4.97812328     14.65299597     12.52631569 C
  constrain_relaxation .true.
atom       6.09933609      6.08229582     11.07769918 C
  constrain_relaxation .true.
atom       1.23556391     11.55470418     13.58380082 C
  constrain_relaxation .true.
atom       4.90301391     11.55470418     23.40844919 C
  constrain_relaxation .true.
atom       2.43188610      6.08229582      1.25305082 C
  constrain_relaxation .true.
atom       1.23556391     14.90079582      1.25305082 C
  constrain_relaxation .true.
atom       6.09933610      2.73620418     23.40844918 C
  constrain_relaxation .true.
atom       2.43188610      2.73620418     13.58380082 C
  constrain_relaxation .true.
atom       4.90301391     14.90079582     11.07769919 C
  constrain_relaxation .true.
atom       6.69096913      7.19201586     10.36843445 C
  constrain_relaxation .true.
atom       0.64393087     10.44498414     14.29306556 C
  constrain_relaxation .true.
atom       4.31138087     10.44498414     22.69918444 C
  constrain_relaxation .true.
atom       3.02351913      7.19201586      1.96231556 C
  constrain_relaxation .true.
atom       0.64393087     16.01051586      1.96231556 C
  constrain_relaxation .true.
atom       6.69096913      1.62648414     22.69918444 C
  constrain_relaxation .true.
atom       3.02351913      1.62648414     14.29306556 C
  constrain_relaxation .true.
atom       4.31138087     16.01051586     10.36843445 C
  constrain_relaxation .true.
atom       7.02485378      7.11688224      9.02216316 C
  constrain_relaxation .true.
atom       0.31004622     10.52011776     15.63933684 C
  constrain_relaxation .true.
atom       3.97749622     10.52011776     21.35291316 C
  constrain_relaxation .true.
atom       3.35740378      7.11688224      3.30858684 C
  constrain_relaxation .true.
atom       0.31004622     15.93538224      3.30858684 C
  constrain_relaxation .true.
atom       7.02485378      1.70161776     21.35291316 C
  constrain_relaxation .true.
atom       3.35740378      1.70161776     15.63933684 C
  constrain_relaxation .true.
atom       3.97749622     15.93538224      9.02216316 C
  constrain_relaxation .true.
atom       6.82453766      5.91015870      8.25839651 C
  constrain_relaxation .true.
atom       0.51036234     11.72684130     16.40310349 C
  constrain_relaxation .true.
atom       4.17781234     11.72684130     20.58914651 C
  constrain_relaxation .true.
atom       3.15708766      5.91015870      4.07235350 C
  constrain_relaxation .true.
atom       0.51036234     14.72865870      4.07235350 C
  constrain_relaxation .true.
atom       6.82453766      2.90834130     20.58914651 C
  constrain_relaxation .true.
atom       3.15708766      2.90834130     16.40310349 C
  constrain_relaxation .true.
atom       4.17781234     14.72865870      8.25839651 C
  constrain_relaxation .true.
atom       6.11011840      4.93024698      8.91735179 C
  constrain_relaxation .true.
atom       1.22478160     12.70675302     15.74414822 C
  constrain_relaxation .true.
atom       4.89223160     12.70675302     21.24810178 C
  constrain_relaxation .true.
atom       2.44266840      4.93024698      3.41339821 C
  constrain_relaxation .true.
atom       1.22478160     13.74874698      3.41339822 C
  constrain_relaxation .true.
atom       6.11011840      3.88825302     21.24810178 C
  constrain_relaxation .true.
atom       2.44266840      3.88825302     15.74414821 C
  constrain_relaxation .true.
atom       4.89223160     13.74874698      8.91735179 C
  constrain_relaxation .true.
atom       6.17627920      3.56020482      8.56321265 C
  constrain_relaxation .true.
atom       1.15862080     14.07679518     16.09828735 C
  constrain_relaxation .true.
atom       4.82607080     14.07679518     20.89396265 C
  constrain_relaxation .true.
atom       2.50882920      3.56020482      3.76753735 C
  constrain_relaxation .true.
atom       1.15862080     12.37870482      3.76753736 C
  constrain_relaxation .true.
atom       6.17627920      5.25829518     20.89396264 C
  constrain_relaxation .true.
atom       2.50882920      5.25829518     16.09828735 C
  constrain_relaxation .true.
atom       4.82607080     12.37870482      8.56321265 C
  constrain_relaxation .true.
atom       5.85882472      2.79370080      9.72378283 C
  constrain_relaxation .true.
atom       1.47607528     14.84329920     14.93771717 C
  constrain_relaxation .true.
atom       5.14352528     14.84329920     22.05453284 C
  constrain_relaxation .true.
atom       2.19137472      2.79370080      2.60696717 C
  constrain_relaxation .true.
atom       1.47607528     11.61220080      2.60696717 C
  constrain_relaxation .true.
atom       5.85882472      6.02479920     22.05453283 C
  constrain_relaxation .true.
atom       2.19137472      6.02479920     14.93771716 C
  constrain_relaxation .true.
atom       5.14352528     11.61220080      9.72378284 C
  constrain_relaxation .true.
atom       5.60180983      3.68595663     10.78200780 C
  constrain_relaxation .true.
atom       1.73309017     13.95104337     13.87949220 C
  constrain_relaxation .true.
atom       5.40054017     13.95104337     23.11275780 C
  constrain_relaxation .true.
atom       1.93435983      3.68595663      1.54874220 C
  constrain_relaxation .true.
atom       1.73309017     12.50445663      1.54874220 C
  constrain_relaxation .true.
atom       5.60180983      5.13254337     23.11275780 C
  constrain_relaxation .true.
atom       1.93435983      5.13254337     13.87949220 C
  constrain_relaxation .true.
atom       5.40054017     12.50445663     10.78200780 C
  constrain_relaxation .true.
atom       5.76127055      5.01578643     10.28631165 C
  constrain_relaxation .true.
atom       1.57362945     12.62121357     14.37518835 C
  constrain_relaxation .true.
atom       5.24107945     12.62121357     22.61706165 C
  constrain_relaxation .true.
atom       2.09382055      5.01578643      2.04443835 C
  constrain_relaxation .true.
atom       1.57362945     13.83428643      2.04443835 C
  constrain_relaxation .true.
atom       5.76127055      3.80271357     22.61706165 C
  constrain_relaxation .true.
atom       2.09382055      3.80271357     14.37518835 C
  constrain_relaxation .true.
atom       5.24107945     13.83428643     10.28631165 C
  constrain_relaxation .true.
# 
# What follows is the current estimated Hessian matrix constructed by the BFGS algorithm.
# This is NOT the true Hessian matrix of the system.
# If you do not want this information here, switch it off using the "hessian_to_restart_geometry" keyword.
# 
trust_radius             0.8000000119
hessian_block                1       1          21.994823          17.242913         -19.721922          17.242913          39.989319         -16.227836         -19.721922         -16.227836          31.770472
hessian_block                1       2           0.057840           0.079258          -0.066199           0.079258           0.120084          -0.087280          -0.066199          -0.087280           0.076784
hessian_block                1       3           0.057840           0.079258          -0.066199           0.079258           0.120084          -0.087280           0.066199           0.087280          -0.076784
hessian_block                1       4          -0.057840          -0.079258           0.066199          -0.079258          -0.120085           0.087280          -0.066199          -0.087280           0.076784
hessian_block                1       5           0.057840           0.079258          -0.066198          -0.079259          -0.120085           0.087281          -0.066198          -0.087280           0.076784
hessian_block                1       6          -0.057840          -0.079258           0.066198           0.079258           0.120085          -0.087280           0.066198           0.087280          -0.076784
hessian_block                1       7          -0.057840          -0.079258           0.066198           0.079258           0.120085          -0.087280          -0.066198          -0.087280           0.076784
hessian_block                1       8           0.057840           0.079258          -0.066198          -0.079259          -0.120085           0.087281           0.066198           0.087280          -0.076784
hessian_block                1       9          -0.433020          -0.053227          -0.228911           0.114874          -0.004338          -0.046880          -0.198661           0.184175          -0.269245
hessian_block                1      10           0.060976           0.085846          -0.069093          -0.025141          -0.036464           0.028203          -0.087259          -0.121833           0.099235
hessian_block                1      11           0.060976           0.085846          -0.069093          -0.025141          -0.036464           0.028203           0.087259           0.121833          -0.099235
hessian_block                1      12          -0.060976          -0.085846           0.069093           0.025141           0.036464          -0.028203          -0.087260          -0.121834           0.099236
hessian_block                1      13           0.060976           0.085846          -0.069094           0.025140           0.036463          -0.028201          -0.087260          -0.121834           0.099236
hessian_block                1      14          -0.060976          -0.085846           0.069094          -0.025140          -0.036463           0.028201           0.087260           0.121834          -0.099236
hessian_block                1      15          -0.060976          -0.085846           0.069094          -0.025140          -0.036463           0.028201          -0.087260          -0.121834           0.099236
hessian_block                1      16           0.060976           0.085846          -0.069094           0.025140           0.036463          -0.028201           0.087260           0.121834          -0.099236
hessian_block                1      17          -0.007906          -0.029866           0.003482          -0.059244          -0.059259           0.074385           0.066817           0.101810          -0.073685