#=======================================================
# FHI-aims file: pahs_geometry_fix/POBPIG.in
# Created using the Atomic Simulation Environment (ASE)
# Tue May 25 14:20:53 2021
#=======================================================
lattice_vector 11.3426148828143258 0.0000000000000000 -1.6472286362733501 
lattice_vector -5.6157098323593013 11.4460221653829297 -1.7228823982807804 
lattice_vector 0.0000000000000000 0.0000000000000000 14.7649000000000008 
atom 5.6105183244809798 1.6127445231024549 10.7502067777695594 H
atom 0.1163867259740449 9.8332776422804749 0.6445821876763104 H
atom 6.3763787606111784 0.2598247031541925 8.8985172395198884 H
atom -0.6494737101561536 11.1861974622287370 2.4962717259259821 H
atom 7.8745252996513520 5.5868034189234077 2.6537272107109233 H
atom -2.1476202491963283 5.8592187464595220 8.7410617547349485 H
atom 7.2862380140708574 6.7188150110797791 4.6467394845661465 H
atom -1.5593329636158315 4.7272071543031497 6.7480494808797244 H
atom 6.8354354734231721 7.7832950724603931 6.4797308111175118 H
atom -1.1085304229681470 3.6627270929225375 4.9150581543283582 H
atom 6.1420398629103214 9.2266384675151798 8.2727898134671491 H
atom -0.4151348124552975 2.2193836978677499 3.1219991519787200 H
atom -2.1250013852430314 4.6779892589920031 1.9022547142785449 H
atom 7.8519064356980559 6.7680329063909266 9.4925342511673243 H
atom -0.6264472621960337 4.3678020583101258 0.0657907181463074 H
atom 6.3533523126510580 7.0782201070728030 11.3289982472995643 H
atom 1.3390829216299343 5.7390355137230005 -0.2004046639649112 H
atom 4.3878221288250918 5.7069866516599284 11.5951936294107814 H
atom 1.8334702899984214 7.4593726451800544 1.3690644324932322 H
atom 3.8934347604566035 3.9866495202028744 10.0257245329526388 H
atom 1.7974068702217756 9.3754367556651577 3.5036974967100436 H
atom 3.9294981802332485 2.0705854097177721 7.8910914687358265 H
atom 1.2420075729086835 10.6230531716918968 5.4574366121160720 H
atom 4.4848974775463413 0.8229689936910327 5.9373523533297989 H
atom 3.9845207360137400 2.8901205967591896 12.7110803449771073 H
atom 1.7423843144412852 8.5559015686237405 -1.3162913795312370 H
atom 2.1947949258689960 3.5024827826071765 -0.5580535333882246 H
atom 3.5321101245860289 7.9435393827757528 11.9528424988340944 H
atom 0.2661893977821275 2.1438399515762225 -0.2882008707329535 H
atom 5.4607156526728975 9.3021822138067058 11.6829898361788231 H
atom 0.0766905249598068 0.0263258509803807 13.3024405542573962 H
atom 5.6502145254952172 11.4196963144025485 -1.9076515888115251 H
atom 2.5639639276621411 2.6783691866996056 1.6795281280604391 H
atom 3.1629411227928830 8.7676529786833246 9.7152608373854310 H
atom 2.0359257946948666 4.3048489364005196 3.2750742677214344 H
atom 3.6909792557601580 7.1411732289824101 8.1197146977244365 H
atom 0.6781430433080167 2.5387277162819339 10.9555180273493633 H
atom 5.0487620071470083 8.9072944491009967 0.4392709380965070 H
atom 1.1577359933044258 0.8630300712698729 9.3011450652731238 H
atom 4.5691690571505985 10.5829920941130560 2.0936439001727458 H
atom -4.1066859417596877 10.8393829906176347 6.0252858004741077 H
atom 9.8335909922147131 0.6066391747652953 5.3695031649717624 H
atom -3.6694610398785419 9.3147728381886274 4.2830224605589970 H
atom 9.3963660903335651 2.1312493271943014 7.1117665048868730 H
atom 0.0808646757844627 4.9721520286423448 12.2758534932068919 H
atom 5.6460403746705632 6.4738701367405849 -0.8810645277610210 H
atom -0.4310882608526581 7.2247291907897049 12.8915656295481380 H
atom 6.1579933113076830 4.2212929745932248 -1.4967766641022673 H
atom -0.2785083786129744 8.9805489909594467 11.2663384495690284 H
atom 6.0054134290679988 2.4654731744234830 0.1284505158768419 H
atom 0.3208878011012203 8.5009606622299021 8.9867562528326186 H
atom 5.4060172493538046 2.9450615031530276 2.4080327126132524 H
atom 1.0098130125280960 7.3048513459473856 6.4942904057264998 H
atom 4.7170920379269283 4.1411708194355441 4.9004985597193711 H
atom 1.4888832747357497 5.7550599447545370 4.7736819626332965 H
atom 4.2380217757192753 5.6909622206283927 6.6211070028125736 H
atom 3.0724807915326946 0.1854255590792034 0.3025993884912141 H
atom 2.6544242589223290 11.2605966063037268 11.0921895769546559 H
atom -2.2894151087088921 9.3594123246336220 12.6156768997623168 H
atom 8.0163201591639179 2.0866098407493081 -1.2208879343164463 H
atom -2.5633832092383093 7.5990141155977273 -0.4964930351638832 H
atom 8.2902882596933338 3.8470080497852028 11.8912820006097526 H
atom -3.1133667373204985 8.0934822731422695 1.8095255212733949 H
atom 8.8402717877755244 3.3525398922406602 9.5852634441724742 H
atom -2.0054134535008448 9.9746360160229539 7.8735714257912051 C
atom 7.7323185039558693 1.4713861493599756 3.5212175396546646 C
atom -2.4048060656084109 10.7646404658776849 8.9406638294435901 C
atom 8.1317111160634354 0.6813816995052459 2.4541251360022796 C
atom -3.5925673789881456 10.5504853911633703 9.6811128040778591 C
atom 9.3194724294431701 0.8955367742195605 1.7136761613680096 C
atom 1.9040040630416608 0.2519269478600782 12.3168582463936165 C
atom 3.8229009874133641 11.1940952175228521 -0.9220692809477463 C
atom 3.0465615340580183 1.0841672195050711 12.1332052657769651 C
atom 2.6803435163970053 10.3618549458778588 -0.7384163003310954 C
atom 3.8966545602515192 0.4813052320543522 11.0910073462397367 C
atom 1.8302504902035053 10.9647169333285763 0.3037816192061343 C
atom 5.0751388047805692 0.8054565797779968 10.4618719809310718 C
atom 0.6517662456744550 10.6405655856049322 0.9329169845147999 C
atom 5.5145497203330311 0.0111026415004214 9.3776776619448796 C
atom 0.2123553301219938 11.4349195238825079 2.0171113035009909 C
atom -0.8116878648986887 10.3541861110270528 7.1841654845751988 C
atom 6.5385929153537132 1.0918360543558776 4.2106234808706704 C
atom -0.4418800219852868 9.5798627115388975 6.0040545043051763 C
atom 6.1687850724403113 1.8661594538440327 5.3907344611406929 C
atom -1.2983611010364584 8.4939785887090178 5.6290924838008349 C
atom 7.0252661514914818 2.9520435766739110 5.7656964816450360 C
atom -0.9725748564214777 7.7871867199966216 4.4776053848717794 C
atom 6.6994799068765021 3.6588354453863072 6.9171835805740916 C
atom 0.1664137513723193 8.0598309679760440 3.6819533098684980 C
atom 5.5604912990827060 3.3861911974068857 7.7128356555773721 C
atom 0.1375709985750083 7.0840575783771484 2.5791645287951672 C
atom 5.5893340518800168 4.3619645870057804 8.8156244366507028 C
atom -1.0218752966320279 6.2658959139955765 2.7413294162618529 C
atom 6.7487803470870524 5.1801262513873523 8.6534595491840172 C
atom -1.7340031583395796 6.7133209204403963 3.9568334789864088 C
atom 7.4609082087946037 4.7327012449425343 7.4379554864594617 C
atom -2.8836159896435873 6.3550604266639104 4.6240380142011377 C
atom 8.6105210400986127 5.0909617387190194 6.7707509512447324 C
atom -3.2400233990963478 7.0509785743191928 5.8060074061855476 C
atom 8.9669284495513715 4.3950435910637369 5.5887815592603234 C
atom -2.4791438701718453 8.0935967333639240 6.3327553581090061 C
atom 8.2060489206268699 3.3524254320190061 5.0620336073368630 C
atom -2.8355568604646222 8.8584199344548100 7.5273499177196710 C
atom 8.5624619109196480 2.5876022309281188 3.8674390477261982 C
atom -3.9613980495903536 8.6070652877030014 8.3132705668987015 C
atom 9.6883031000453776 2.8389568776799279 3.0815183985471690 C
atom -4.3568646861660083 9.4464020930905317 9.3828788753965373 C
atom 10.0837697366210328 1.9996200722923978 2.0119100900493319 C
atom -1.3060369675585761 5.2674594005092246 1.8161871250031785 C
atom 7.0329420180136015 6.1785627648737051 9.5786018404426923 C
atom -0.4315474382720651 5.0869556309611355 0.7439587312166860 C
atom 6.1584524887270895 6.3590665344217943 10.6508302342291845 C
atom 0.7085257910446238 5.8747853366044431 0.5985689135869896 C
atom 5.0183792594104011 5.5712368287784875 10.7962200518588798 C
atom 1.0000473706817343 6.8822642076014482 1.5162075399692978 C
atom 4.7268576797732900 4.5637579577814815 9.8785814254765736 C
atom 0.9880112999267635 9.0979851783762751 4.0508621021641158 C
atom 4.7388937505282618 2.3480369870066542 7.3439268632817534 C
atom 0.6682883364365333 9.8504466755285502 5.1975416144469850 C
atom 5.0586167140184912 1.5955754898543804 6.1972473509988841 C
atom 3.1568525346047727 2.2834814219938946 12.8205280490906688 C
atom 2.5700525158502510 9.1625407433890356 -1.4257390836447972 C
atom 2.1191883109830196 2.6601700114566467 13.6784911545246395 C
atom 3.6077167394720053 8.7858521539262835 -2.2837021890787703 C
atom 1.0031803354313433 1.8528820681321887 13.8558553585769850 C
atom 4.7237247150236801 9.5931400972507408 -2.4610663931311136 C
atom 0.8838035709936224 0.6394892583799443 13.1797661669903121 C
atom 4.8431014794614020 10.8065329070029854 -1.7849772015444427 C
atom 1.8218191689442647 1.6514320780214491 5.2775055065288186 C
atom 3.9050858815107605 9.7945900873614811 6.1172834589170524 C
atom 2.1058396386169362 0.7176655897695098 4.2925669061473606 C
atom 3.6210654118380874 10.7283565756134198 7.1022220592985104 C
atom -3.4518823232566103 10.7681887327489516 2.7920507950190756 C
atom 9.1787873737116357 0.6778334326339771 8.6027381704267949 C
atom -3.1357384413496852 10.1545674844627740 1.4900412853046641 C
atom 8.8626434918047092 1.2914546809201559 9.9047476801412060 C
atom -2.9767064012618536 11.2071436827913882 0.5369045726686856 C
atom 8.7036114517168777 0.2388784825915417 10.8578843927771835 C
atom 2.3912781117020434 1.0449073634778077 2.9462621144022445 C
atom 3.3356269387529807 10.4011148019051216 8.4485268510436260 C
atom 2.3714247992974564 2.3751640595386116 2.5862112964563622 C
atom 3.3554802511575677 9.0708581058443176 8.8085776689895070 C
atom 2.0601486812878602 3.3487627049260835 3.5662743815644689 C
atom 3.6667563691671639 8.0972594604568453 7.8285145838814003 C
atom 1.7845565965700876 3.0287319251819773 4.8967045646078651 C
atom 3.9423484538849367 8.4172902402009520 6.4980844008380050 C
atom 1.4632122381671302 4.0078246612088329 5.9357756667783743 C
atom 4.2636928122878945 7.4381975041740978 5.4590132986674949 C
atom 1.2658080730877894 3.5203385771851741 7.2655589783313141 C
atom 4.4610969773672347 7.9256835881977565 4.1292299871145550 C
atom 0.9860516475418920 4.4562798096485361 8.2561878875980508 C
atom 4.7408534029131326 6.9897423557343945 3.1386010778478193 C
atom 0.8690949706287689 5.8427364745413710 8.0229815806169658 C
atom 4.8578100798262547 5.6032856908415587 3.3718073848289052 C
atom 0.5275992360197581 6.4444538597755514 9.3192055487753400 C
atom 5.1993058144352666 5.0015683056073792 2.0755834166705300 C
atom 0.4524224784813533 5.3987452747461662 10.2889093887594090 C
atom 5.2744825719736719 6.0472768906367627 1.1058795766864620 C
atom 0.7569175818520583 4.1266343712855083 9.6128621314745164 C
atom 4.9699874686029668 7.3193877940974215 1.7819268339713528 C
atom 0.8408327578594699 2.8031308283022796 9.9895746247059503 C
atom 4.8860722925955553 8.6428913370806502 1.4052143407399202 C
atom 1.1289866207908390 1.8329659895644224 9.0036919440009164 C
atom 4.5979184296641860 9.6130561758185085 2.3910970214449541 C
atom 1.3232593880011942 2.1428098095813382 7.6552907032140292 C
atom 4.4036456624538296 9.3032123558015911 3.7394982622318405 C
atom 1.5920012596895121 1.1576506818068295 6.6079292160323488 C
atom 4.1349037907655122 10.2883714835760998 4.7868597494135230 C
atom -3.9548473662534365 11.2283188237973466 5.0987087214787090 C
atom 9.6817524167084628 0.2177033415855833 6.2960802439671619 C
atom -3.6778248472905002 10.3016488692879449 4.0658172458875610 C
atom 9.4047298977455256 1.1443732960949853 7.3289717195583091 C
atom 0.0931283849558636 5.6871850333138161 11.5971016021391797 C
atom 5.6337766654991608 5.7588371320691127 -0.2023126366933107 C
atom -0.1826521255791667 7.0096584343021604 11.9439079559947885 C
atom 5.9095571760341903 4.4363637310807693 -0.5491189905489189 C
atom -0.1000036905700863 8.0290411683511635 11.0015477122721776 C
atom 5.8269087410251101 3.4169809970317662 0.3932412531736923 C
atom 0.2531364731356078 7.7579993634748963 9.6807936146334015 C
atom 5.4737685773194160 3.6880228019080339 1.7139953508124692 C
atom 1.0522063360299541 6.3066437529043400 6.7341670600951868 C
atom 4.6746987144250705 5.1393784124785897 4.6606219053506832 C
atom 1.3402984680493530 5.3821485426063616 5.7109976222075547 C
atom 4.3866065824056708 6.0638736227765691 5.6837913432383154 C
atom -2.6626999162905847 10.9007336694240866 -0.7861210627507623 C
atom 8.3896049667456083 0.5452884959588428 12.1809100281966316 C
atom -2.5263551656458567 9.5593743318628608 -1.1507171072276634 C
atom 8.2532602161008803 1.8866478335200683 12.5455060726735343 C
atom -2.6854878549719916 8.5444555464583569 -0.2175814590727916 C
atom 8.4123929054270157 2.9015666189245728 11.6123704245186623 C
atom -2.9858831950575127 8.8275156746082768 1.1152900879982575 C
atom 8.7127882455125381 2.6185064907746529 10.2794988774476135 C
