#=======================================================
# FHI-aims file: pahs_geometry_fix/JULSOY.in
# Created using the Atomic Simulation Environment (ASE)
# Tue May 25 14:20:52 2021
#=======================================================
lattice_vector 0.0000000000000012 7.4440000000000000 0.0000000000000005 
lattice_vector -0.0000000000000000 -0.0000000000000000 14.2629999999999999 
lattice_vector 23.2603083315766064 -0.0000000000000000 -5.7563443538401966 
atom 2.1399483665050480 0.9900520000000000 0.7968753194467018 H
atom 21.1203599650715645 6.4539479999999987 7.7097803267130987 H
atom 9.4902057992832543 4.7120519999999990 3.4564525036332006 H
atom 13.7701025322933504 2.7319480000000000 5.0502031425266027 H
atom 1.9073452831892823 0.4838600000000000 3.1507817629851038 H
atom 21.3529630483873305 6.9601399999999991 5.3558738831746986 H
atom 9.7228088825990202 4.2058599999999995 1.1025460600947976 H
atom 13.5374994489775844 3.2381400000000000 7.4041095860650046 H
atom 23.0509655565924163 0.9900520000000000 -1.4969522546556358 H
atom 0.2093427749841905 6.4539479999999987 10.0036079008154388 H
atom 11.8394969407724933 4.7120519999999990 -0.0060642761046601 H
atom 11.4208113908041131 2.7319480000000000 8.5127199222644645 H
atom 21.3297027400557475 1.4515800000000001 -0.6573557724714615 H
atom 1.9306055915208593 5.9924199999999992 9.1640114186312651 H
atom 13.5607597573091621 5.1735799999999985 -0.8456607582888352 H
atom 9.6995485742674443 2.2704200000000001 9.3523164044486347 H
atom 19.1664940652191227 1.8758880000000000 0.3914522524356777 H
atom 4.0938142663574837 5.5681120000000002 8.1152033937241264 H
atom 15.7239684321457904 5.5978880000000002 -1.8944687831959739 H
atom 7.5363398994308213 1.8461119999999998 10.4011244293557770 H
atom 18.6780275902560149 3.6698919999999995 1.0543294838663211 H
atom 4.5822807413205933 3.7741080000000000 7.4523261622934811 H
atom 16.2124349071088965 7.3918919999999995 -2.5573460146266176 H
atom 7.0478734244677117 0.0521080000000000 11.0640016607864222 H
atom 18.2826023486192177 3.9453200000000002 3.4342673378816038 H
atom 4.9777059829573949 3.4986799999999993 5.0723883082781969 H
atom 16.6078601487456972 0.2233200000000000 9.3257161313580994 H
atom 6.6524481828309101 7.2206799999999989 -0.8190604851982958 H
atom 16.0961333654510099 3.3349120000000001 4.3889907071425833 H
atom 7.1641749661255956 4.1090880000000007 4.1176649390172182 H
atom 18.7943291319139014 7.0569119999999987 8.3709927620971207 H
atom 4.4659791996627085 0.3870880000000000 0.1356628840626819 H
atom 14.3050896239196152 2.5160720000000003 2.9209872223882778 H
atom 8.9552187076569929 4.9279280000000005 5.5856684237715255 H
atom 20.5853728734453014 6.2380719999999998 -4.4240037531485763 H
atom 2.6749354581313098 1.2059280000000001 12.9306593993083769 H
atom 13.1188138990092042 1.4739120000000001 1.8025237844341289 H
atom 10.1414944325674021 5.9700880000000005 6.7041318617256742 H
atom 21.7716485983557071 5.1959119999999999 -3.3055403151944258 H
atom 1.4886597332209035 2.2480880000000001 11.8121959613542273 H
atom 10.8160433741831223 0.7667320000000000 1.5166218754643086 H
atom 12.4442649573934894 6.6772679999999989 6.9900337706954936 H
atom 0.8141107916051822 4.4887319999999988 2.7367059476155933 H
atom 22.4461975399714291 2.9552680000000002 5.7699496985442087 H
atom 8.8389171659991099 0.5136360000000001 0.1089321455407251 H
atom 14.4213911655775000 6.9303639999999991 8.3977235006190778 H
atom 2.7912369997891942 4.2356359999999995 4.1443956775391770 H
atom 20.4690713317874184 3.2083640000000000 4.3622599686206271 H
atom 9.0017393243201465 1.0644920000000000 12.0067687350638437 H
atom 14.2585690072564635 6.3795079999999986 -3.5001130889040413 H
atom 2.6284148414681581 4.7864919999999991 6.5095590880160579 H
atom 20.6318934901084496 2.6575080000000000 1.9970965581437452 H
atom 11.1184273824936195 1.7344520000000001 10.9409473988643864 H
atom 12.1418809490829922 5.7095479999999990 -2.4342917527045831 H
atom 0.5117267832946862 5.4564519999999987 7.5753804242155169 H
atom 22.7485815482819191 1.9875480000000001 0.9312752219442868 H
atom 12.8629505073618642 2.0098800000000003 10.2239615723263704 H
atom 10.3973578242147440 5.4341200000000001 -1.7173059261665673 H
atom 22.0275119900030489 5.7318800000000003 2.5360218969133328 H
atom 1.2327963415735603 1.7121200000000001 5.9706337492464696 H
atom 15.0028988738669113 2.6053999999999999 9.2950138917730740 H
atom 8.2574094577096950 4.8386000000000005 -0.7883582456132695 H
atom 19.8875636234980000 6.3273999999999999 3.4649695774666305 H
atom 3.3727447080786077 1.1166000000000000 5.0416860686931706 H
atom 15.5844065821563298 4.4366240000000001 9.0370012829270667 H
atom 7.6759017494202819 3.0073760000000003 -0.5303456367672655 H
atom 19.3060559152085816 0.7146240000000000 3.7229821863126351 H
atom 3.9542524163680244 6.7293760000000002 4.7836734598471669 H
atom 15.9798318237931340 5.2405759999999999 6.7854304289117833 H
atom 7.2804765077834785 2.2034240000000000 1.7212252172480180 H
atom 18.9106306735717808 1.5185759999999999 5.9745530403279172 H
atom 4.3496776580048273 5.9254240000000005 2.5321026058318834 H
atom 18.1663008069613348 4.8981520000000005 5.7308660596508041 H
atom 5.0940075246152769 2.5458480000000003 2.7757895865089970 H
atom 16.7241616904035837 1.1761520000000001 7.0291174095888991 H
atom 6.5361466411730280 6.2678479999999999 1.4775382365709044 H
atom 20.0038651651558830 3.8783240000000001 6.9734118556974298 H
atom 3.2564431664207256 3.5656759999999994 1.5332437904623721 H
atom 14.8865973322090284 0.1563240000000000 5.7865716135422725 H
atom 8.3737109993675798 7.2876759999999994 2.7200840326175295 H
atom 21.2831821233925957 2.7393920000000000 7.8834309162362208 H
atom 1.9771262081840129 4.7046080000000003 0.6232247299235831 H
atom 13.6072803739723174 6.4613920000000000 4.8765525530034841 H
atom 9.6530279576042908 0.9826080000000000 3.6301030931563183 H
atom 0.3023840083104962 1.9354400000000000 13.7745405234000771 H
atom 22.9579243232661128 5.5085600000000001 -5.2678848772402747 H
atom 11.3277701574778096 5.6574400000000002 4.7417872996798245 H
atom 11.9325381740988004 1.7865599999999997 3.7648683464799784 H
atom 1.2211661874077719 1.2044391999999997 1.2553115214233899 C
atom 22.0391421441688387 6.2395607999999996 7.2513441247364119 C
atom 10.4089879783805319 4.9264392000000008 2.9980163016565120 C
atom 12.8513203531960745 2.5175608000000000 5.5086393445032895 C
atom 1.0606700599198935 0.9334776000000001 2.6029473974648871 C
atom 22.1996382716567133 6.5105223999999993 5.9037082486949162 C
atom 10.5694841058684101 4.6554775999999984 1.6503804256150147 C
atom 12.6908242257081962 2.7885223999999993 6.8562752205447861 C
atom 23.1393547282524104 1.2185828000000001 -2.5300730632002288 C
atom 0.1209536033241994 6.2254171999999999 11.0367287093600321 C
atom 11.7511077691125028 4.9405827999999996 1.0270565324399328 C
atom 11.5092005624641072 2.5034171999999999 7.4795991137198703 C
atom 22.0554243600009379 1.7932596000000001 -3.2302851163112751 C
atom 1.2048839715756692 5.6507404000000001 11.7369407624710789 C
atom 12.8350381373639717 5.5152596000000003 1.7272685855509791 C
atom 10.4252701942126347 1.9287403999999999 6.7793870606088236 C
atom 20.7993677100958010 2.1088852000000000 -2.6284773212039045 C
atom 2.4609406214808058 5.3351148000000004 11.1351329673637078 C
atom 14.0910947872691121 5.8308852000000000 1.1254607904436089 C
atom 9.1692135443074978 1.6131147999999997 7.3811948557161928 C
atom 20.5737427192795117 1.8609999999999998 -1.2419028809716555 C
atom 2.6865656122970991 5.5830000000000002 9.7485585271314577 C
atom 14.3167197780854050 5.5830000000000002 -0.2611136497886413 C
atom 8.9435885534912050 1.8609999999999998 8.7677692959484439 C
atom 19.3781628710364693 2.0910195999999996 -0.6607667811842681 C
atom 3.8821454605401371 5.3529803999999999 9.1674224273440696 C
atom 15.5122996263284438 5.8130196000000005 -0.8422497495760278 C
atom 7.7480087052481679 1.6309803999999997 9.3489053957358283 C
atom 18.2616680711207984 2.5666911999999997 -1.4014141521999393 C
atom 4.9986402604558142 4.8773087999999989 9.9080697983597403 C
atom 16.6287944262441201 6.2886911999999988 -0.1016023785603578 C
atom 6.6315139053324907 1.1553088000000000 8.6082580247201577 C
atom 16.9707209587182923 2.6828175999999995 -0.8280556405618082 C
atom 6.2895873728583149 4.7611823999999991 9.3347112867216104 C
atom 17.9197415386466190 6.4048175999999994 -0.6749608901984885 C
atom 5.3405667929299900 1.0391824000000001 9.1816165363582893 C
atom 16.7497480295683125 2.8257423999999993 0.6129932307996737 C
atom 6.5105603020082921 4.6182575999999997 7.8936624153601302 C
atom 18.1407144677965988 6.5477424000000006 -2.1160097615599707 C
atom 5.1195938637800120 0.8962576000000000 10.6226654077197704 C
atom 17.7383111336603179 3.3713876000000003 1.4608943957614653 C
atom 5.5219971979162876 4.0726124000000006 7.0457612503983382 C
atom 17.1521513637045935 7.0933875999999989 -2.9639109265217622 C
atom 6.1081569678720165 0.3506124000000000 11.4705665726815642 C
atom 17.5033820195113954 3.5507879999999994 2.8084086737352534 C
atom 5.7569263120652110 3.8932120000000001 5.6982469724245517 C
atom 17.3870804778535195 7.2727879999999994 9.9515747955044525 C
atom 5.8732278537230931 0.1712120000000000 -1.4449191493446498 C
atom 16.2729117087709980 3.2143192000000003 3.3468324900533979 C
atom 6.9873966228056128 4.2296808000000006 5.1598231561064036 C
atom 18.6175507885939204 6.9363191999999998 9.4131509791863035 C
atom 4.6427575429826904 0.5076807999999998 -0.9064953330265034 C
atom 15.2796965430126761 2.7364143999999992 2.5271822939623743 C
atom 7.9806117885639347 4.7075855999999998 5.9794733521974281 C
atom 19.6107659543522352 6.4584144000000006 -4.0301988247226710 C
atom 3.6495423772243698 0.9855856000000000 12.5368544708824743 C
atom 15.4960174104963357 2.5354263999999995 1.1557470914716605 C
atom 7.7642909210802715 4.9085735999999986 7.3509085546881439 C
atom 19.3944450868685792 6.2574263999999991 -2.6587636222319566 C
atom 3.8658632447080317 1.1865735999999998 11.1654192683917568 C
atom 14.3958048264127623 2.1468495999999999 0.2784243794083014 C
atom 8.8645035051638441 5.2971504000000005 8.2282312667515018 C
atom 20.4946576709521473 5.8688495999999999 -1.7814409101685986 C
atom 2.7656506606244591 1.5751503999999998 10.2880965563283997 C
atom 13.2095291015023548 1.6756443999999997 0.7616958414541523 C
atom 10.0507792300742533 5.7683556000000005 7.7449598047056520 C
atom 21.6809333958625601 5.3976443999999999 -2.2647123722144489 C
atom 1.5793749357140519 2.0463555999999996 10.7713680183742504 C
atom 12.0860562090872037 1.4471136000000000 -0.0685078262553662 C
atom 11.1742521224894027 5.9968864000000002 8.5751634724151682 C
atom 22.8044062882777112 5.1691136000000002 -1.4345087045049303 C
atom 0.4559020432989018 2.2748863999999993 9.9411643506647316 C
atom 10.8625639908462777 1.0049400000000002 0.4781731867566278 C
atom 12.3977443407303358 6.4390599999999987 8.0284824594031736 C
atom 0.7675901749420289 4.7269399999999990 3.7751546363232742 C
atom 22.4927181566345773 2.7170600000000000 4.7315010098365287 C
atom 9.7553733142632293 0.8642483999999998 -0.3118446220005791 C
atom 13.5049350173133806 6.5797515999999989 8.8185002681603830 C
atom 1.8747808515250752 4.5862483999999988 4.5651724450804805 C
atom 21.3855274800515360 2.8577516000000003 3.9414832010793206 C
atom 9.8437624859232198 1.1448871999999997 -1.6673092305451716 C
atom 13.4165458456533901 6.2991127999999987 10.1739648767049733 C
atom 1.7863916798650843 4.8668872000000007 5.9206370536250725 C
atom 21.4739166517115230 2.5771128000000001 2.5860185925347285 C
atom 11.0277121800004707 1.5409079999999999 -2.2370093581556376 C
atom 12.2325961515761410 5.9030919999999991 10.7436650043154405 C
atom 0.6024419857878351 5.2629079999999986 6.4903371812355397 C
atom 22.6578663457887757 2.1810920000000000 2.0163184649242640 C
atom 12.1860755349129875 1.6942543999999997 -1.4553766069768799 C
atom 11.0742327966636243 5.7497455999999998 9.9620322531366821 C
atom 22.7043869624519239 5.4162544000000006 -0.0476399237834173 C
atom 0.5559213691246814 2.0277455999999998 8.5542955699432195 C
atom 13.4630664623165419 2.0887863999999996 -1.9939027120027069 C
atom 9.7972418692600662 5.3552135999999990 10.5005583581625110 C
atom 21.4273960350483748 5.8107863999999987 0.4908861812424095 C
atom 1.8329122965282367 1.6332136000000002 8.0157694649173923 C
atom 13.6817133606333581 2.1974688000000002 10.8699867510711972 C
atom 9.5785949709432465 5.2465311999999988 -2.3633311049113925 C
atom 21.2087491367315550 5.9194687999999989 1.8899967181685058 C
atom 2.0515591948450571 1.5245311999999998 6.6166589279912946 C
atom 14.8842713013758736 2.5317044000000002 10.3498809479776561 C
atom 8.3760370302007345 4.9122955999999993 -1.8432253018178542 C
atom 20.0061911959890431 6.2537043999999984 2.4101025212620453 C
atom 3.2541171355875682 1.1902955999999998 6.0965531248977554 C
atom 16.0263524404562823 2.7855447999999998 -3.0903730597958958 C
atom 7.2339558911203250 4.6584552000000006 11.5970287059556991 C
atom 18.8641100569086291 6.5075447999999989 1.5873565290355991 C
atom 4.3961982746679791 0.9364551999999999 6.9192991171242024 C
atom 17.3079954295261516 3.0669279999999999 -3.6129348336924902 C
atom 5.9523129020504548 4.3770720000000001 12.1195904798522935 C
atom 17.5824670678387598 6.7889280000000003 2.1099183029321935 C
atom 5.6778412637378510 0.6550720000000000 6.3967373432276080 C
atom 17.5289683586761313 3.5567432000000001 9.2817575949460274 C
atom 5.7313399729004777 3.8872567999999998 -0.7751019487862246 C
atom 17.3614941386887800 7.2787432000000001 3.4782258742936780 C
atom 5.8988141928878273 0.1652568000000000 5.0284297718661266 C
atom 16.5311011312514964 4.2482907999999986 8.5730837677257696 C
atom 6.7292072003251144 3.1957091999999996 -0.0664281215659691 C
atom 18.3593613661134150 0.5262907999999998 4.1868997015139335 C
atom 4.9009469654631914 6.9177091999999991 4.3197559446458706 C
atom 16.7497480295683125 4.7135407999999988 7.2966350307996741 C
atom 6.5105603020082938 2.7304592000000003 1.2100206153601289 C
atom 18.1407144677965952 0.9915408000000001 5.4633484384400282 C
atom 5.1195938637800120 6.4524591999999990 3.0433072077197738 C
atom 18.0081307103066131 4.5542392000000005 6.7013831012569174 C
atom 5.2521776212699987 2.8897607999999999 1.8052725449028839 C
atom 16.8823317870583054 0.8322391999999998 6.0586003679827849 C
atom 6.3779765445183063 6.6117607999999990 2.4480552781770184 C
atom 19.0199541227301907 3.9453200000000002 7.3951927218648699 C
atom 4.2403542088464157 3.4986799999999993 1.1114629242949323 C
atom 15.8705083746347189 0.2233200000000000 5.3647907473748324 C
atom 7.3897999569418884 7.2206799999999989 3.1418648987849691 C
atom 18.8082853169128477 3.4324283999999996 8.6941616554848142 C
atom 4.4520230146637632 4.0115715999999999 -0.1875060093250136 C
atom 16.0821771804520708 7.1544283999999987 4.0658218137548863 C
atom 7.1781311511245400 0.2895716000000000 4.4408338324049152 C
atom 19.9154759934958889 2.8570072000000000 -4.7973624357579769 C
atom 3.3448323380807170 4.5869928000000000 13.3040180819177802 C
atom 14.9749865038690242 6.5790072000000004 3.2943459049976807 C
atom 8.2853218277075875 0.8649928000000000 5.2123097411621213 C
atom 21.1366421809036602 2.5741351999999997 8.9095480856654117 C
atom 2.1236661506729453 4.8698648000000002 -0.4028924395056098 C
atom 13.7538203164612529 6.2961352000000002 3.8504353835742919 C
atom 9.5064880151153588 1.1478648000000000 4.6562202625855118 C
atom 22.2159204874888196 2.0411448000000001 -4.6135784923527732 C
atom 1.0443878440877905 5.4028552000000003 13.1202341385125720 C
atom 12.6745420098760970 5.7631448000000001 3.1105619615924764 C
atom 10.5857663217005147 1.6808552000000001 5.3960936845673277 C
atom 0.1953865899852438 1.7448736000000000 0.5335771074277424 C
atom 23.0649217415913661 5.6991263999999999 7.9730785387320600 C
atom 11.4347675758030594 5.4668736000000004 3.7197507156521592 C
atom 11.8255407557735470 1.9771264000000000 4.7869049305076414 C
atom 19.7293935268432783 2.6083775999999994 -3.3963266809272548 C
atom 3.5309148047333299 4.8356223999999992 11.9029823270870594 C
atom 15.1610689705216366 6.3303775999999994 1.8933101501669591 C
atom 8.0992393610549769 1.1136224000000001 6.6133454959928430 C
atom 18.4314683219413027 2.7795895999999995 -2.8041256659829719 C
atom 4.8288400096353055 4.6644104000000004 11.3107813121427743 C
atom 16.4589941754236087 6.5015896000000000 1.3011091352226758 C
atom 6.8013141561529995 0.9424103999999998 7.2055465109371255 C
atom 15.8588782204689291 2.6195436000000001 -1.6768267804482464 C
atom 7.4014301111076763 4.8244563999999990 10.1834824266080499 C
atom 19.0315842768959804 6.3415435999999987 0.1738102496879492 C
atom 4.2287240546806268 1.1024564000000001 8.3328453964718516 C
atom 14.5516488922343257 2.3061511999999995 -1.1379489277624277 C
atom 8.7086594393422825 5.1378488000000004 9.6446045739222317 C
atom 20.3388136051305857 6.0281511999999999 -0.3650676029978686 C
atom 2.9214947264460225 1.4158487999999998 8.8717232491576716 C
