#=======================================================
# FHI-aims file: pahs_geometry_fix/ANTCEN.in
# Created using the Atomic Simulation Environment (ASE)
# Tue May 25 14:20:52 2021
#=======================================================
lattice_vector 0.0000000000000010 6.0380000000000003 0.0000000000000004 
lattice_vector 7.0391972793051734 -0.0000000000000000 -4.8741712796148882 
lattice_vector -7.0391972793051734 -0.0000000000000000 -6.3098287203851111 
atom 0.9205862201875311 0.6541569200000000 -6.5442737199480350 H
atom -0.9205862201875298 5.3838430800000001 -4.6397262800519643 H
atom 2.5990124194650570 3.6731569200000003 -7.0768119198594075 H
atom -2.5990124194650557 2.3648430800000000 -4.1071880801405909 H
atom 1.3791195309614699 1.9601159399999999 -8.5974221971021496 H
atom -1.3791195309614681 4.0778840600000006 -2.5865778028978506 H
atom 2.1404791086911183 4.9791159399999998 -5.0236634427052955 H
atom -2.1404791086911175 1.0588840600000000 -6.1603365572947046 H
atom -5.9510077718973866 2.2724616800000002 -6.1105618985007766 H
atom 5.9510077718973866 3.7655383200000001 -5.0734381014992209 H
atom 2.4314091322448008 5.2914616800000003 -2.6363524616917782 H
atom -2.4314091322447999 0.7465383200000000 -8.5476475383082207 H
atom -0.8497718955577196 3.4390032799999997 -8.9944886031248910 H
atom 0.8497718955577213 2.5989967200000001 -2.1895113968751074 H
atom 4.3693705352103072 0.4200032800000000 -4.6265970366825515 H
atom -4.3693705352103063 5.6179967200000007 -6.5574029633174451 H
atom -0.1684479908937716 4.0822314200000003 -6.8272830012788157 H
atom 0.1684479908937734 1.9557685800000000 -4.3567169987211845 H
atom 3.6880466305463595 1.0632314199999999 -6.7938026385286276 H
atom -3.6880466305463582 4.9747685800000001 -4.3901973614713699 H
atom 0.6143811385377557 0.1637505600000000 -7.5203235892847866 C
atom -0.6143811385377544 5.8742494399999998 -3.6636764107152113 C
atom 2.9052175011148313 3.1827505600000001 -6.1007620505226550 C
atom -2.9052175011148296 2.8552494400000001 -5.0832379494773434 C
atom 0.8359046769174900 0.9524945000000000 -8.6232353594542666 C
atom -0.8359046769174888 5.0855055000000009 -2.5607646405457309 C
atom 2.6836939627350986 3.9714944999999999 -4.9978502803531741 C
atom -2.6836939627350969 2.0665054999999999 -6.1861497196468234 C
atom 0.4127785284584556 0.4848514000000000 -9.9246399638366167 C
atom -0.4127785284584554 5.5531486000000001 -1.2593600361633825 C
atom 3.1068201111941312 3.5038514000000003 -3.6964456759708249 C
atom -3.1068201111941307 2.5341486000000004 -7.4875543240291735 C
atom -6.4207334063454207 1.2641156800000000 -6.2081754890120751 C
atom 6.4207334063454224 4.7738843200000005 -4.9758245109879224 C
atom 2.9011347666928353 4.2831156799999999 -2.5387388711804788 C
atom -2.9011347666928335 1.7548843200000002 -8.6452611288195200 C
atom -0.2138508133452884 5.2490145400000001 -10.0304810765252999 C
atom 0.2138508133452911 0.7889854600000001 -1.1535189234746985 C
atom 3.7334494529978790 2.2300145400000000 -3.5906045632821431 C
atom -3.7334494529978781 3.8079854599999998 -7.5933954367178540 C
atom -0.4262233952619271 4.4715616599999999 -8.8370522890193186 C
atom 0.4262233952619292 1.5664383399999999 -2.3469477109806802 C
atom 3.9458220349145159 1.4525616600000002 -4.7840333507881247 C
atom -3.9458220349145146 4.5854383400000005 -6.3999666492118736 C
atom -0.0236517028584648 4.9475372000000002 -7.6268802245004936 C
atom 0.0236517028584658 1.0904628000000001 -3.5571197754995061 C
atom 3.5432503425110529 1.9285372000000003 -5.9942054153069506 C
atom -3.5432503425110520 4.1094628000000002 -5.1897945846930496 C
