#=======================================================
# FHI-aims file: pahs_geometry_fix/QQQCIG13.in
# Created using the Atomic Simulation Environment (ASE)
# Tue May 25 14:20:53 2021
#=======================================================
lattice_vector 8.7384216115794331 0.0000000000000000 -0.1494785211376336 
lattice_vector 0.0000000000000016 10.1250000000000000 0.0000000000000006 
lattice_vector 0.0000000000000000 0.0000000000000000 15.6349999999999998 
atom 1.9984770225682167 3.2531624999999997 2.0890472622158236 H
atom 6.7399445890112171 6.8718374999999998 13.3964742166465438 H
atom 6.7399445890112180 8.3156625000000002 5.5789742166465439 H
atom 1.9984770225682165 1.8093375000000000 9.9065472622158239 H
atom 2.5559883213869843 3.7695375000000002 4.2934265325672420 H
atom 6.1824332901924501 6.3554625000000007 11.1920949462951249 H
atom 6.1824332901924510 8.8320375000000002 3.3745949462951246 H
atom 2.5559883213869838 1.2929625000000000 12.1109265325672411 H
atom 1.3902828784022883 2.7934874999999999 6.0660504672870026 H
atom 7.3481387331771462 7.3315124999999997 9.4194710115753644 H
atom 7.3481387331771462 7.8559875000000003 1.6019710115753643 H
atom 1.3902828784022883 2.2690125000000001 13.8835504672870016 H
atom 8.4430629611080477 1.2423375000000001 5.4763563528768184 H
atom 0.2953586504713863 8.8826625000000003 10.0091651259855485 H
atom 0.2953586504713858 6.3048375000000005 2.1916651259855486 H
atom 8.4430629611080477 3.8201625000000003 13.2938563528768192 H
atom 7.9344868233141259 0.6591375000000000 3.2758305028070289 H
atom 0.8039347882653094 9.4658625000000001 12.2096909760553380 H
atom 0.8039347882653087 5.7216375000000008 4.3921909760553381 H
atom 7.9344868233141268 4.4033625000000001 11.0933305028070279 H
atom 3.4909994338259835 1.0854000000000001 0.3968253308055155 H
atom 5.2474221777534513 9.0396000000000001 15.0886961480568509 H
atom 5.2474221777534504 6.1478999999999999 7.2711961480568510 H
atom 3.4909994338259840 3.9770999999999996 8.2143253308055151 H
atom 5.2386837561418700 1.9288125000000000 1.6974681265779887 H
atom 3.4997378554375644 8.1961875000000006 13.7880533522843791 H
atom 3.4997378554375644 6.9913125000000003 5.9705533522843774 H
atom 5.2386837561418709 3.1336875000000002 9.5149681265779886 H
atom 5.3916061343445101 1.3577625000000000 3.9572367524580803 H
atom 3.3468154772349243 8.7672375000000002 11.5282847264042871 H
atom 3.3468154772349239 6.4202624999999998 3.7107847264042864 H
atom 5.3916061343445110 3.7047375000000002 11.7747367524580806 H
atom 3.8178164020990564 10.0450125000000003 4.9034958341149686 H
atom 4.9206052094803789 0.0799875000000000 10.5820256447473984 H
atom 4.9206052094803798 4.9825124999999995 2.7645256447473989 H
atom 3.8178164020990555 5.1424875000000005 12.7209958341149676 H
atom 2.0718797641054851 9.1975499999999997 3.6137676426382677 H
atom 6.6665418474739493 0.9274500000000000 11.8717538362240980 H
atom 6.6665418474739502 4.1350499999999997 4.0542538362240998 H
atom 2.0718797641054847 5.9899500000000003 11.4312676426382680 H
atom 3.3686615312638728 7.7780249999999995 1.6325195301014428 H
atom 5.3697600803155616 2.3469750000000000 13.8530019487609248 H
atom 5.3697600803155616 2.7155250000000000 6.0355019487609249 H
atom 3.3686615312638728 7.4094750000000005 9.4500195301014429 H
atom 3.6378049169005191 5.6386124999999998 0.8492925916504034 H
atom 5.1006166946789158 4.4863875000000002 14.6362288872119635 H
atom 5.1006166946789149 0.5761125000000000 6.8187288872119627 H
atom 3.6378049169005195 9.5488875000000011 8.6667925916504043 H
atom 2.2073252990849657 4.7860874999999998 14.8045472255606345 H
atom 6.5310963124944692 5.3389125000000002 0.6809742533017330 H
atom 6.5310963124944701 9.8485875000000007 8.4984742533017332 H
atom 2.2073252990849648 0.2764125000000000 6.9870472255606337 H
atom 0.6012034068766660 6.1306875000000005 13.8626513777457312 H
atom 8.1372182047027675 3.9943125000000004 1.6228701011166358 H
atom 8.1372182047027675 1.0681875000000001 9.4403701011166365 H
atom 0.6012034068766664 9.0568124999999995 6.0451513777457313 H
atom 1.5420692617954228 2.8254824999999997 2.8034001753748421 C
atom 7.1963523497840116 7.2995175000000003 12.6821213034875253 C
atom 7.1963523497840116 7.8879824999999997 4.8646213034875254 C
atom 1.5420692617954228 2.2370174999999999 10.6209001753748407 C
atom 1.8619828769953459 3.1457362500000001 4.1162709667159927 C
atom 6.8764387345840881 6.9792637499999994 11.3692505121463725 C
atom 6.8764387345840881 8.2082362500000006 3.5517505121463739 C
atom 1.8619828769953457 1.9167637500000001 11.9337709667159935 C
atom 1.1765410857830554 2.5618275000000001 5.1692870619140292 C
atom 7.5618805257963793 7.5631724999999994 10.3162344169483369 C
atom 7.5618805257963793 7.6243275000000006 2.4987344169483379 C
atom 1.1765410857830554 2.5006724999999999 12.9867870619140291 C
atom 0.1815844010886209 1.6417687499999998 4.9076909863307598 C
atom 8.5568372104908139 8.4832312499999993 10.5778304925316071 C
atom 8.5568372104908139 6.7042687499999998 2.7603304925316068 C
atom 0.1815844010886212 3.4207312499999998 12.7251909863307588 C
atom 8.6155594037206260 1.2992400000000000 3.4471096468695617 C
atom 0.1228622078588082 8.8257600000000007 12.0384118319928053 C
atom 0.1228622078588079 6.3617400000000002 4.2209118319928054 C
atom 8.6155594037206260 3.7632600000000003 11.2646096468695607 C
atom 0.5579482198993472 1.8821362500000001 2.5287980464253619 C
atom 8.1804733916800885 8.2428637499999997 12.9567234324370055 C
atom 8.1804733916800885 6.9446362500000003 5.1392234324370047 C
atom 0.5579482198993474 3.1803637500000002 10.3462980464253622 C
atom 0.0930641901633212 1.5022462500000000 1.1489877037498843 C
atom 8.6453574214161133 8.6227537499999993 14.3365337751124819 C
atom 8.6453574214161133 6.5647462499999998 6.5190337751124829 C
atom 0.0930641901633215 3.5602537499999998 8.9664877037498858 C
atom 0.4107931999603492 0.2447212500000000 0.5542695147213199 C
atom 8.3276284116190862 9.8802787500000004 14.9312519641410457 C
atom 8.3276284116190844 5.3072212500000004 7.1137519641410467 C
atom 0.4107931999603500 4.8177787499999996 8.3717695147213202 C
atom 1.5150675390156436 9.5841224999999994 0.9978632140051577 C
atom 7.2233540725637910 0.5408775000000000 14.4876582648572096 C
atom 7.2233540725637919 4.5216224999999994 6.6701582648572098 C
atom 1.5150675390156430 5.6033775000000006 8.8153632140051563 C
atom 2.5896312445915650 0.0183262500000000 1.8750546402608621 C
atom 6.1487903669878703 10.1066737500000006 13.6104668386015053 C
atom 6.1487903669878694 5.0808262499999994 5.7929668386015045 C
atom 2.5896312445915659 5.0441737500000006 9.6925546402608624 C
atom 3.5482360953818288 0.8529300000000000 1.3167477464920638 C
atom 5.1901855161976060 9.2720699999999994 14.1687737323703029 C
atom 5.1901855161976052 5.9154299999999997 6.3512737323703030 C
atom 3.5482360953818297 4.2095700000000003 9.1342477464920631 C
atom 4.5914288673721808 1.3531050000000000 2.0875324006386533 C
atom 4.1469927442072532 8.7718950000000007 13.3979890782237128 C
atom 4.1469927442072523 6.4156050000000002 5.5804890782237138 C
atom 4.5914288673721817 3.7093950000000002 9.9050324006386532 C
atom 4.6854542839127769 1.0105762500000000 3.4263125617512120 C
atom 4.0529673276666589 9.1144237500000003 12.0592089171111549 C
atom 4.0529673276666580 6.0730762499999997 4.2417089171111542 C
atom 4.6854542839127777 4.0519237500000003 11.2438125617512110 C
atom 3.7476468765580710 0.1611900000000000 3.9878597466397032 C
atom 4.9907747350213638 9.9638099999999987 11.4976617322226637 C
atom 4.9907747350213629 5.2236900000000004 3.6801617322226634 C
atom 3.7476468765580719 4.9013100000000005 11.8053597466397022 C
atom 2.7072503994834256 9.7855087500000000 3.2221868093663506 C
atom 6.0311712120960088 0.3394912500000000 12.2633346694960164 C
atom 6.0311712120960097 4.7230087500000000 4.4458346694960165 C
atom 2.7072503994834247 5.4019912499999991 11.0396868093663496 C
atom 1.7091478830088227 8.2881225000000001 0.4989137960506907 C
atom 7.0292737285706117 1.8368774999999999 14.9866076828116750 C
atom 7.0292737285706126 3.2256224999999996 7.1691076828116769 C
atom 1.7091478830088225 6.8993774999999999 8.3164137960506910 C
atom 2.7722642562735764 7.4458237499999997 0.9724489891690862 C
atom 5.9661573553058576 2.6791762500000003 14.5130724896932808 C
atom 5.9661573553058576 2.3833237499999997 6.6955724896932809 C
atom 2.7722642562735764 7.7416762500000003 8.7899489891690870 C
atom 2.9445859304539224 6.1849574999999994 0.4971679227322520 C
atom 5.7938356811255121 3.9400424999999997 14.9883535561301144 C
atom 5.7938356811255112 1.1224575000000001 7.1708535561301145 C
atom 2.9445859304539228 9.0025425000000006 8.3146679227322533 C
atom 2.0966968814823699 5.6778974999999994 15.1131983236382368 C
atom 6.6417247300970645 4.4471024999999997 0.3723231552241305 C
atom 6.6417247300970637 0.6153975000000000 8.1898231552241310 C
atom 2.0966968814823703 9.5096024999999997 7.2956983236382369 C
atom 1.1271690036776321 6.4657237499999995 14.5794309655584566 C
atom 7.6112526079018021 3.6592762500000000 0.9060905133039101 C
atom 7.6112526079018012 1.4032237500000000 8.7235905133039093 C
atom 1.1271690036776323 8.7217762499999996 6.7619309655584567 C
atom 0.8768132245058815 7.7913899999999998 15.0713691751890515 C
atom 7.8616083870735531 2.3336099999999997 0.4141523036733167 C
atom 7.8616083870735531 2.7288899999999998 8.2316523036733162 C
atom 0.8768132245058815 7.3961100000000002 7.2538691751890498 C
