#=======================================================
# FHI-aims file: pahs_geometry_fix/BENZEN.in
# Created using the Atomic Simulation Environment (ASE)
# Tue May 25 14:20:52 2021
#=======================================================
lattice_vector -0.0000000000000000 -0.0000000000000000 6.9199999999999999 
lattice_vector 7.4400000000000004 -0.0000000000000000 0.0000000000000005 
lattice_vector 0.0000000000000015 9.5500000000000007 0.0000000000000006 
atom 6.7138559999999989 2.3368850000000001 6.7975159999999999 H
atom 0.7261440000000012 7.2131149999999993 0.1224840000000005 H
atom 4.4461440000000012 7.2131149999999993 3.3375160000000013 H
atom 2.9938560000000005 2.3368850000000001 3.5824840000000004 H
atom 0.7261440000000012 7.1118850000000009 3.5824840000000009 H
atom 6.7138559999999989 2.4381149999999998 3.3375160000000004 H
atom 2.9938560000000005 2.4381149999999998 0.1224840000000003 H
atom 4.4461440000000012 7.1118850000000009 6.7975159999999999 H
atom 5.6477040000000001 0.7582699999999999 1.5348560000000007 H
atom 1.7922960000000012 8.7917300000000012 5.3851440000000013 H
atom 5.5122960000000019 8.7917300000000012 4.9948560000000004 H
atom 1.9277040000000008 0.7582699999999999 1.9251440000000002 H
atom 1.7922960000000010 5.5332700000000008 1.9251440000000004 H
atom 5.6477040000000009 4.0167299999999999 4.9948559999999995 H
atom 1.9277040000000008 4.0167299999999999 5.3851440000000004 H
atom 5.5122960000000010 5.5332700000000008 1.5348560000000011 H
atom 1.0200240000000003 1.5576050000000001 5.3200960000000004 H
atom 6.4199760000000001 7.9923949999999992 1.5999040000000009 H
atom 2.6999760000000013 7.9923949999999992 1.8600960000000006 H
atom 4.7400240000000000 1.5576050000000001 5.0599040000000004 H
atom 6.4199760000000010 6.3326050000000009 5.0599039999999995 H
atom 1.0200240000000003 3.2173950000000002 1.8600960000000002 H
atom 4.7400240000000009 3.2173950000000002 1.5999040000000004 H
atom 2.6999760000000008 6.3326050000000009 5.3200960000000004 H
atom 7.0166640000000005 1.3245849999999997 6.8826320000000010 C
atom 0.4233360000000013 8.2254149999999999 0.0373680000000005 C
atom 4.1433359999999997 8.2254149999999999 3.4226320000000006 C
atom 3.2966639999999998 1.3245849999999997 3.4973679999999998 C
atom 0.4233360000000010 6.0995850000000011 3.4973680000000007 C
atom 7.0166640000000013 3.4504150000000005 3.4226320000000006 C
atom 3.2966640000000007 3.4504150000000005 0.0373680000000004 C
atom 4.1433360000000006 6.0995850000000011 6.8826320000000010 C
atom 6.4467600000000003 0.4393000000000000 0.8746880000000005 C
atom 0.9932400000000016 9.1106999999999996 6.0453120000000018 C
atom 4.7132400000000017 9.1106999999999996 4.3346880000000017 C
atom 2.7267600000000001 0.4393000000000000 2.5853120000000001 C
atom 0.9932400000000010 5.2143000000000006 2.5853120000000005 C
atom 6.4467600000000012 4.3357000000000001 4.3346879999999999 C
atom 2.7267600000000010 4.3357000000000001 6.0453120000000009 C
atom 4.7132400000000008 5.2143000000000006 0.8746880000000007 C
atom 0.5758560000000001 0.8833749999999999 6.0238600000000000 C
atom 6.8641440000000022 8.6666249999999998 0.8961400000000010 C
atom 3.1441440000000012 8.6666249999999998 2.5638600000000005 C
atom 4.2958560000000006 0.8833749999999999 4.3561399999999999 C
atom 6.8641440000000014 5.6583749999999995 4.3561400000000008 C
atom 0.5758560000000008 3.8916249999999994 2.5638600000000005 C
atom 4.2958560000000015 3.8916249999999994 0.8961400000000005 C
atom 3.1441440000000007 5.6583749999999995 6.0238600000000009 C
