#=======================================================
# FHI-aims file: pahs_geometry_fix/PUNVIE.in
# Created using the Atomic Simulation Environment (ASE)
# Tue May 25 14:20:53 2021
#=======================================================
lattice_vector 9.4561857715812945 0.0000000000000000 3.7464508996306720 
lattice_vector 3.2097758749361067 10.3273131590387095 5.4642804318431581 
lattice_vector 0.0000000000000000 0.0000000000000000 13.0184999999999995 
atom 8.6917477398725840 1.9064220091585455 5.5610505632519169 H
atom 3.9742139066448172 8.4208911498801644 16.6681807682219123 H
atom 6.5562413202014991 1.5707843314897878 7.0418239959763467 H
atom 6.1097203263159026 8.7565288275489213 15.1874073354974826 H
atom 6.2124703230163449 0.0691929981655593 8.7877623828815494 H
atom 6.4534913235010558 10.2581201608731494 13.4414689485922789 H
atom 7.5363350007196797 0.1817607115990813 10.7066808972083010 H
atom 5.1296266457977220 10.1455524474396288 11.5225504342655292 H
atom 9.1623368217762007 1.8475563241520252 10.8958457263013155 H
atom 3.5036248247412001 8.4797568348866843 11.3333856051725128 H
atom 9.4609951542229265 3.3987187606396394 9.1873085497113252 H
atom 3.2049664922944743 6.9285943983990705 13.0419227817625067 H
atom 6.1329651749917566 4.7939387684257690 8.2438227181802528 H
atom 6.5329964715256450 5.5333743906129413 13.9854086132935755 H
atom 5.4977212723702165 5.9598924240812385 10.1500833090243106 H
atom 7.1682403741471852 4.3674207349574701 12.0791480224495196 H
atom 6.9672032390729735 7.4811056524076420 11.1480609914558801 H
atom 5.6987584074444282 2.8462075066310684 11.0811703400179482 H
atom 9.0697515220261060 7.8415288816580917 10.1967487428994623 H
atom 3.5962101244912952 2.4857842773806174 12.0324825885743660 H
atom 9.6844861571006540 6.7282445231137187 8.2503689737492465 H
atom 2.9814754894167481 3.5990686359249899 13.9788623577245819 H
atom 6.7103426001104625 7.4305018179283522 5.6946757693992671 H
atom 5.9556190464069374 2.8968113411103582 16.5345555620745621 H
atom 6.8173347125699291 9.7675727858188104 18.7865456471995635 H
atom 5.8486269339474717 0.5597403732198980 3.4426856842742657 H
atom 5.6740870537536860 0.5184311205837432 13.3289352521632072 H
atom 6.9918745927637138 9.8088820384549660 8.9002960793106212 H
atom 10.8450385486583070 9.5982048500105765 18.6979291613079717 H
atom 1.8209230978590953 0.7291083090281328 3.5313021701658580 H
atom 10.7513543530203446 7.2735266579109634 18.5919018209255178 H
atom 1.9146072934970568 3.0537865011277465 3.6373295105483137 H
atom 7.6614777207202360 6.7819465515407202 16.0069042229444953 H
atom 5.0044839257971656 3.5453666074979888 6.2223271085293348 H
atom 8.2396542389491731 7.8694126271874971 14.0320936052681997 H
atom 4.4263074075682285 2.4579005318512128 8.1971377262056304 H
atom 10.3093402683372961 7.4821383837235453 13.0323986674285450 H
atom 2.3566213781801051 2.8451747753151646 9.1968326640452869 H
atom 2.3521250714205175 5.9888089009265473 10.2733968241166789 H
atom 10.3138365750968841 4.3385042581121613 11.9558345073571513 H
atom 1.7629660584755069 4.8538371847481931 12.2115518321663483 H
atom 10.9029955880418932 5.4734759742905164 10.0176794993074818 H
atom 7.9151325346605335 3.5515629953934122 14.9704031735148355 H
atom 4.7508291118568682 6.7757501636452977 7.2588281579589946 H
atom 8.2902820466437142 2.1511793310277634 13.1510288390552521 H
atom 4.3756795998736866 8.1761338280109452 9.0782024924185780 H
atom 0.5084937443263197 0.5194638518996471 9.4953555037381552 H
atom 12.1574679021910814 9.8078493071390618 12.7338758277356732 H
atom 1.7625171598230378 0.2612810229236793 11.4508945648799649 H
atom 10.9034444866943652 10.0660321361150302 10.7783367665938652 H
atom 1.3197958742285620 1.5842098385965382 13.3122955719624247 H
atom 11.3461657722888400 8.7431033204421720 8.9169357595114054 H
atom 8.3454381321454090 3.5039540817302437 6.7476685295696539 C
atom 4.3205235143719918 6.8233590773084662 15.4815628019041753 C
atom 8.3448749090459113 4.9147683323865214 6.7814906340938954 C
atom 4.3210867374714894 5.4125448266521881 15.4477406973799347 C
atom 8.6830406412881533 5.6164059884116115 18.6205325280586287 C
atom 3.9829210052292479 4.7109071706270980 3.6086988034152006 C
atom 9.0089972202620778 4.9455437256004569 17.4318065410532235 C
atom 3.6569644262553229 5.3817694334382526 4.7974247904206067 C
atom 9.0058552167253385 3.5316312809964674 17.4171297616385345 C
atom 3.6601064297920645 6.7956818780422417 4.8121015698352938 C
atom 8.6820851292332097 2.8565348197901073 5.5695707414683993 C
atom 3.9838765172841923 7.4707783392486027 16.6596605900054300 C
atom 8.0509368015603240 2.6346008600023652 7.9278915290050458 C
atom 4.6150248449570768 7.6927122990363452 14.3013398024687834 C
atom 7.0841637908712638 1.6355365849969605 7.8278218125941699 C
atom 5.5817978556461378 8.6917765740417483 14.4014095188796585 C
atom 6.8851607463567337 0.7363374282394600 8.8627006275494438 C
atom 5.7808009001606679 9.5909757307992489 13.3665307039243864 C
atom 7.6615943097155510 0.8071827965104654 10.0028396340844239 C
atom 5.0043673368018506 9.5201303625282439 12.2263916973894080 C
atom 8.6252590320615212 1.7971590359359164 10.1141313301882878 C
atom 4.0407026144558813 8.5301541231027933 12.1151000012855423 C
atom 8.8103873217380055 2.7122622549583362 9.0924494598077885 C
atom 3.8555743247793961 7.6150509040803733 13.1367818716660416 C
atom 7.9683495794759223 5.6459421040464619 8.0279121987269733 C
atom 4.6976120670414785 4.6813710549922467 14.2013191327468569 C
atom 6.7298069990282823 5.4254539681009861 8.6265266166958181 C
atom 5.9361546474891185 4.9018591909377234 13.6027047147780120 C
atom 6.3545045800616897 6.1103613768084335 9.7692484889786275 C
atom 6.3114570664557119 4.2169517822302769 12.4599828424952008 C
atom 7.2227816920862926 7.0146209170138629 10.3608456544578811 C
atom 5.4431799544311081 3.3126922420248470 11.8683856770159508 C
atom 8.4652074351810445 7.2305650351693620 9.7917373306028175 C
atom 4.2007542113363554 3.0967481238693475 12.4374940008710126 C
atom 8.8322177117518912 6.5621813275163765 8.6364255917334809 C
atom 3.8337439347655087 3.7651318315223330 13.5928057397403492 C
atom 8.7214696684904141 7.1176875023410693 18.6506807827003911 C
atom 3.9444919780269871 3.2096256566976407 3.5785505487734381 C
atom 7.5535281829366605 7.8664177063713758 18.7068522417557261 C
atom 5.1124334635807411 2.4608954526673341 3.5223790897181040 C
atom 7.6178502430606096 9.2575067888938900 18.7540773119113737 C
atom 5.0481114034567911 1.0698063701448199 3.4751540195624564 C
atom 8.8424065977377921 9.8969740197015668 18.7536616098430358 C
atom 3.8235550487796086 0.4303391393371430 3.4755697216307926 C
atom 10.0029348333435628 9.1584678556987082 18.6971415434076427 C
atom 2.6630268131738393 1.1688453033400013 3.5320897880661883 C
atom 9.9465133499659935 7.7766733550193292 18.6396355246174572 C
atom 2.7194482965514082 2.5506398040193807 3.5895958068563725 C
atom 9.3806936556267004 5.6966492116573431 16.1925030640137777 C
atom 3.2852679908907012 4.6306639473813673 6.0367282674600533 C
atom 8.5034273317653231 6.6075182322845567 15.6018146282086629 C
atom 4.1625343147520768 3.7197949267541528 6.6274167032651672 C
atom 8.8503315112841534 7.2596880582778516 14.4292995536989270 C
atom 3.8156301352332473 3.0676251007608584 7.7999317777749031 C
atom 10.0753032603443167 7.0315577105946856 13.8349445602448977 C
atom 2.5906583861730854 3.2957554484440235 8.3942867712289306 C
atom 10.9590550628915953 6.1418596819435018 14.4171393714262930 C
atom 1.7069065836258059 4.1854534770952077 7.8120919600475354 C
atom 10.6102069044691181 5.4746119787380101 15.5756028922664314 C
atom 2.0557547420482840 4.8527011803006985 6.6536284392073970 C
atom 9.3041424613978041 2.7151539026428670 16.2106601892174531 C
atom 3.3618191851195971 7.6121592563958425 6.0185711422563761 C
atom 8.5767994243241894 2.8722323357918458 15.0278412347441019 C
atom 4.0891622221932113 7.4550808232468633 7.2013900967297273 C
atom 8.8093298180949891 2.0492487501480512 13.9397871365874497 C
atom 3.8566318284224117 8.2780644088906588 8.2894441948863804 C
atom 0.3403162870911259 1.0751765729875200 10.2486234038439505 C
atom 12.3256453594262751 9.2521365860511899 11.9806079276298778 C
atom 1.0784142038597229 0.9192341442860356 11.4105180801543984 C
atom 11.5875474426576801 9.4080790147526745 10.8187132513194317 C
atom 0.8242762920677874 1.7168125395585951 12.5127646846442531 C
atom 11.8416853544496128 8.6105006194801135 9.7164666468295771 C
