#=======================================================
# FHI-aims file: pahs_geometry_fix/QQQCIG04.in
# Created using the Atomic Simulation Environment (ASE)
# Tue May 25 14:20:53 2021
#=======================================================
lattice_vector -0.0000000000000012 -7.1699999999999999 -0.0000000000000004 
lattice_vector -13.3945000000000007 3.5850000000000000 -0.0000000000000006 
lattice_vector 0.0000000000000000 0.0000000000000000 -14.2110000000000003 
atom -12.6612850700000017 -3.5850000000000004 -0.0000000000000010 C
atom -0.7332149299999987 0.0000000000000004 -0.0000000000000000 C
atom -0.7332149300000023 -3.5849999999999995 -7.1055000000000001 C
atom -12.6612850700000017 0.0000000000000001 -7.1055000000000010 C
atom -11.9709325400000015 2.5479311999999998 -13.5126714600000017 C
atom -1.4235674600000001 -6.1329312000000007 -0.6983285399999983 C
atom -1.4235674599999997 -2.5479312000000007 -6.4071714600000007 C
atom -11.9709325400000015 -1.0370687999999992 -7.8038285400000005 C
atom -1.4235674599999999 -4.6220688000000001 -7.8038285399999996 C
atom -11.9709325400000015 1.0370688000000006 -6.4071714600000016 C
atom -11.9709325400000033 -2.5479312000000007 -0.6983285399999988 C
atom -1.4235674599999979 -1.0370687999999995 -13.5126714600000017 C
atom -12.6770905799999998 1.4642574000000004 -12.9668269500000015 C
atom -0.7174094200000016 -5.0492574000000010 -1.2441730499999990 C
atom -0.7174094200000010 -1.4642573999999997 -5.8613269499999996 C
atom -12.6770905800000016 -2.1207426000000007 -8.3496730500000016 C
atom -0.7174094200000016 -5.7057426000000016 -8.3496730500000016 C
atom -12.6770905799999998 2.1207426000000003 -5.8613269499999987 C
atom -12.6770905800000016 -1.4642573999999995 -1.2441730500000012 C
atom -0.7174094200000011 -2.1207426000000007 -12.9668269499999997 C
atom -12.0038830100000009 0.3761381999999998 -12.3050206800000002 C
atom -1.3906169900000012 -3.9611381999999993 -1.9059793200000006 C
atom -1.3906169899999989 -0.3761382000000001 -5.1995206800000000 C
atom -12.0038830100000009 -3.2088618000000007 -9.0114793200000012 C
atom -1.3906169900000016 -6.7938618000000002 -9.0114793200000012 C
atom -12.0038830100000009 3.2088617999999993 -5.1995206800000000 C
atom -12.0038830100000009 -0.3761382000000006 -1.9059793200000010 C
atom -1.3906169900000009 -3.2088617999999993 -12.3050206800000002 C
atom -12.6856630599999995 -0.6405677999999991 -11.7192432600000007 C
atom -0.7088369400000016 -2.9444322000000001 -2.4917567399999996 C
atom -0.7088369400000022 -6.5294321999999987 -4.6137432599999979 C
atom -12.6856630599999995 2.9444322000000009 -9.5972567400000024 C
atom -0.7088369399999997 -0.6405678000000002 -9.5972567399999988 C
atom -12.6856630600000013 -2.9444321999999992 -4.6137432600000006 C
atom -12.6856630599999995 0.6405678000000007 -2.4917567400000014 C
atom -0.7088369400000017 -4.2255677999999994 -11.7192432599999989 C
atom -10.5120035999999999 2.6207784000000003 -13.1772918600000004 C
atom -2.8824964000000022 -6.2057783999999998 -1.0337081400000010 C
atom -2.8824964000000013 -2.6207783999999994 -6.0717918600000003 C
atom -10.5120035999999999 -0.9642216000000005 -8.1392081400000009 C
atom -2.8824964000000017 -4.5492216000000001 -8.1392081400000009 C
atom -10.5120035999999999 0.9642216000000002 -6.0717918600000003 C
atom -10.5120035999999999 -2.6207783999999998 -1.0337081399999997 C
atom -2.8824964000000013 -0.9642216000000002 -13.1772918600000004 C
atom -9.5658161199999991 1.8056211000000000 -13.8015810900000009 C
atom -3.8286838800000025 -5.3906210999999997 -0.4094189099999990 C
atom -3.8286838800000020 -1.8056211000000000 -6.6960810900000007 C
atom -9.5658161199999991 -1.7793789000000004 -7.5149189100000005 C
atom -3.8286838800000025 -5.3643789000000002 -7.5149189100000005 C
atom -9.5658161199999991 1.7793788999999991 -6.6960810900000007 C
atom -9.5658161199999991 -1.8056211000000000 -0.4094189099999991 C
atom -3.8286838800000020 -1.7793789000000000 -13.8015810900000009 C
atom -8.2512798900000011 1.7860470000000006 -13.3613243100000005 C
atom -5.1432201100000015 -5.3710469999999999 -0.8496756900000008 C
atom -5.1432201100000006 -1.7860469999999997 -6.2558243100000004 C
atom -8.2512798899999993 -1.7989530000000007 -7.9551756900000008 C
atom -5.1432201100000015 -5.3839530000000000 -7.9551756900000008 C
atom -8.2512798900000011 1.7989530000000009 -6.2558243100000004 C
atom -8.2512798899999993 -1.7860470000000002 -0.8496756900000008 C
atom -5.1432201100000006 -1.7989530000000002 -13.3613243100000005 C
atom -7.8531953500000018 -4.5809130000000007 -12.2999047200000025 C
atom -5.5413046499999998 0.9959130000000002 -1.9110952799999994 C
atom -5.5413046500000007 -2.5890869999999997 -5.1944047199999996 C
atom -7.8531953500000018 -0.9959129999999999 -9.0165952800000007 C
atom -5.5413046500000007 -4.5809129999999998 -9.0165952800000007 C
atom -7.8531953500000009 0.9959130000000002 -5.1944047199999996 C
atom -7.8531953500000018 -2.5890869999999997 -1.9110952799999996 C
atom -5.5413046499999998 -0.9959130000000002 -12.2999047200000025 C
atom -8.7817020900000031 -3.7649670000000004 -11.6733417300000006 C
atom -4.6127979099999976 0.1799669999999998 -2.5376582700000005 C
atom -4.6127979099999994 -3.4050329999999995 -4.5678417300000005 C
atom -8.7817020900000013 -0.1799669999999999 -9.6431582700000007 C
atom -4.6127979099999994 -3.7649670000000004 -9.6431582700000007 C
atom -8.7817020900000013 0.1799670000000000 -4.5678417300000005 C
atom -8.7817020900000031 -3.4050329999999995 -2.5376582700000010 C
atom -4.6127979099999976 -0.1799669999999998 -11.6733417300000006 C
atom -10.0989172200000006 -3.7543553999999997 -12.1054982400000011 C
atom -3.2955827799999993 0.1693553999999995 -2.1055017599999997 C
atom -3.2955827800000015 -3.4156446000000011 -4.9999982400000009 C
atom -10.0989172200000006 -0.1693553999999983 -9.2110017600000020 C
atom -3.2955827800000015 -3.7543554000000006 -9.2110017600000003 C
atom -10.0989172200000006 0.1693553999999998 -4.9999982400000009 C
atom -10.0989172200000006 -3.4156445999999994 -2.1055017600000001 C
atom -3.2955827799999993 -0.1693554000000002 -12.1054982400000011 C
atom -11.0290312999999998 0.3800100000000005 -12.2825673000000020 H
atom -2.3654687000000019 -3.9650099999999995 -1.9284327000000010 H
atom -2.3654687000000001 -0.3800100000000007 -5.1770673000000000 H
atom -11.0290312999999998 -3.2049899999999996 -9.0339326999999994 H
atom -2.3654687000000001 0.3800100000000015 -9.0339326999999994 H
atom -11.0290312999999998 -3.9650100000000004 -5.1770673000000000 H
atom -11.0290312999999998 -0.3800100000000012 -1.9284326999999997 H
atom -2.3654687000000019 -3.2049899999999987 -12.2825673000000020 H
atom -12.2211418000000016 -1.3551299999999997 -11.2764285000000015 H
atom -1.1733582000000007 -2.2298700000000000 -2.9345714999999988 H
atom -1.1733582000000011 -5.8148700000000000 -4.1709284999999987 H
atom -12.2211418000000016 2.2298700000000005 -10.0400714999999998 H
atom -1.1733582000000005 -1.3551299999999993 -10.0400714999999998 H
atom -12.2211418000000016 -2.2298700000000005 -4.1709285000000005 H
atom -12.2211418000000016 1.3551299999999993 -2.9345715000000010 H
atom -1.1733582000000011 -4.9401299999999990 -11.2764284999999997 H
atom -9.8369207999999997 1.2404100000000011 -0.3638015999999983 H
atom -3.5575792000000019 -4.8254099999999998 -13.8471984000000017 H
atom -3.5575792000000015 -1.2404100000000002 -7.4693016000000014 H
atom -9.8369207999999997 -2.3445899999999997 -6.7416984000000015 H
atom -3.5575792000000019 -5.9295899999999993 -6.7416984000000015 H
atom -9.8369207999999997 2.3445899999999997 -7.4693015999999997 H
atom -9.8369207999999997 -1.2404100000000002 -13.8471984000000017 H
atom -3.5575792000000015 -2.3445899999999997 -0.3638015999999997 H
atom -7.5893237000000004 1.2045600000000003 -13.8145131000000010 H
atom -5.8051763000000012 -4.7895599999999998 -0.3964868999999996 H
atom -5.8051762999999994 -1.2045600000000001 -6.7090131000000000 H
atom -7.5893237000000013 -2.3804400000000001 -7.5019869000000012 H
atom -5.8051763000000003 1.2045600000000010 -7.5019869000000012 H
atom -7.5893237000000013 -4.7895600000000007 -6.7090131000000000 H
atom -7.5893237000000004 -1.2045600000000001 -0.3964868999999995 H
atom -5.8051762999999994 -2.3804399999999992 -13.8145131000000010 H
atom -6.9303143000000027 -4.5888000000000000 -12.0139794000000020 H
atom -6.4641856999999980 1.0037999999999998 -2.1970205999999983 H
atom -6.4641856999999980 -2.5812000000000004 -4.9084794000000009 H
atom -6.9303143000000018 -1.0038000000000002 -9.3025206000000011 H
atom -6.4641857000000007 -4.5888000000000000 -9.3025206000000011 H
atom -6.9303143000000018 1.0038000000000000 -4.9084793999999992 H
atom -6.9303143000000018 -2.5811999999999999 -2.1970205999999983 H
atom -6.4641856999999980 -1.0037999999999998 -12.0139794000000002 H
atom -8.5055075000000020 -3.1978200000000006 -10.9268378999999989 H
atom -4.8889925000000005 -0.3871799999999996 -3.2841621000000001 H
atom -4.8889925000000014 -3.9721799999999994 -3.8213378999999996 H
atom -8.5055075000000002 0.3871800000000003 -10.3896621000000025 H
atom -4.8889925000000005 -3.1978199999999997 -10.3896621000000025 H
atom -8.5055075000000002 -0.3871800000000003 -3.8213378999999996 H
atom -8.5055075000000020 -3.9721800000000003 -3.2841621000000005 H
atom -4.8889924999999987 0.3871800000000007 -10.9268378999999989 H
atom -10.7745358000000024 -3.1978200000000001 -11.6473356000000017 H
atom -2.6199641999999987 -0.3871800000000000 -2.5636643999999986 H
atom -2.6199642000000010 -3.9721799999999998 -4.5418355999999989 H
atom -10.7745358000000007 0.3871800000000005 -9.6691643999999997 H
atom -2.6199642000000005 -3.1978200000000001 -9.6691644000000014 H
atom -10.7745358000000007 -0.3871799999999997 -4.5418355999999989 H
atom -10.7745358000000024 -3.9721799999999998 -2.5636644000000008 H
atom -2.6199641999999987 0.3871800000000007 -11.6473355999999999 H
