#=======================================================
# FHI-aims file: pahs_geometry_fix/BNPERY.in
# Created using the Atomic Simulation Environment (ASE)
# Tue May 25 14:20:52 2021
#=======================================================
lattice_vector -0.0000000000000000 -0.0000000000000000 9.8900000000000006 
lattice_vector 11.5912659186016658 -0.0000000000000000 -1.7323262984390371 
lattice_vector 0.0000000000000019 11.8800000000000008 0.0000000000000007 
atom 1.8117148630774418 9.7950600000000012 3.0285413995539794 C
atom 9.7795510555242249 2.0849400000000000 5.1291323020069850 C
atom 3.9839180962233929 3.8550600000000004 5.9952954512265029 C
atom 7.6073478223782738 8.0249400000000009 2.1623782503344606 C
atom 2.6520816421760633 10.8286200000000008 3.4834907429171484 C
atom 8.9391842764256051 1.0513800000000000 4.6741829586438151 C
atom 3.1435513171247731 4.8886200000000004 5.5403461078633338 C
atom 8.4477146014768962 6.9913800000000004 2.6173275936976297 C
atom 3.0369116706736383 11.8633680000000012 2.6506015098089732 C
atom 8.5543542479280283 0.0166320000000000 5.5070721917519920 C
atom 2.7587212886271972 5.9233680000000000 6.3732353409715108 C
atom 8.8325446299744730 5.9566319999999999 1.7844383605894543 C
atom 2.5883296796237518 0.0344520000000000 1.2974385375585631 C
atom 9.0029362389779166 11.8455480000000009 6.8602351640024013 C
atom 3.2073032796770824 5.9744520000000003 7.7263983132219192 C
atom 8.3839626389245865 5.9055480000000005 0.4312753883390449 C
atom 2.9662049485701663 1.0715760000000001 0.4398747002294505 C
atom 8.6250609700315017 10.8084240000000005 7.7177990013315139 C
atom 2.8294280107306680 7.0115759999999998 8.5839621505510291 C
atom 8.7618379078709996 4.8684239999999992 -0.4262884489900681 C
atom 2.5118273245609810 1.1024639999999999 8.9953798911282608 C
atom 9.0794385940406883 10.7775360000000013 -0.8377061895672971 C
atom 3.2838056347398532 7.0424640000000007 0.0284569596522213 C
atom 8.3074602838618148 4.8375360000000001 8.1292167419087438 C
atom 1.6760970518298008 0.0962280000000000 8.5041336172457154 C
atom 9.9151688667718698 11.7837720000000008 -0.3464599156847522 C
atom 4.1195359074710325 6.0362280000000004 0.5197032335347667 C
atom 7.4717300111306342 5.8437720000000004 7.6379704680261975 C
atom 1.2054916555345732 0.1069200000000000 7.1572290649623405 C
atom 10.3857742630670966 11.7730800000000002 1.0004446365986226 C
atom 4.5901413037662611 6.0469200000000001 1.8666077858181416 C
atom 7.0011246148354065 5.8330800000000007 6.2910659157428217 C
atom 0.3755570157626958 10.9830600000000000 6.7007206279305764 C
atom 11.2157089028389727 0.8969400000000001 1.4569530736303880 C
atom 5.4200759435381407 5.0430600000000005 2.3231162228499072 C
atom 6.1711899750635277 6.8369400000000002 5.8345574787110577 C
atom 11.5634468803970254 9.9186119999999995 5.7862532846772181 C
atom 0.0278190382046443 1.9613880000000001 2.3714204168837467 C
atom 5.8234519975054786 3.9786120000000000 1.5052572676642277 C
atom 5.7678139210961898 7.9013880000000007 6.6524164338967369 C
atom 10.7311939874414239 8.9004960000000004 5.3231683129051408 C
atom 0.8600719311602441 2.9795040000000004 2.8345053886558236 C
atom 6.6557048904610792 2.9604960000000005 1.9683422394363048 C
atom 4.9355610281405919 8.9195040000000017 6.1893314621246596 C
atom 10.3336135664333870 7.8455520000000005 6.1599411049415993 C
atom 1.2576523521682816 4.0344480000000003 1.9977325966193649 C
atom 7.0532853114691152 1.9055519999999999 1.1315694473998461 C
atom 4.5379806071325550 9.9744480000000006 7.0261042541611181 C
atom 10.7879911904425736 7.8122879999999988 7.4914689140427893 C
atom 0.8032747281590961 4.0677120000000002 0.6662047875181750 C
atom 6.5989076874599286 1.8722880000000000 -0.1999583617013437 C
atom 4.9923582311417398 10.0077120000000015 8.3576320632623062 C
atom 0.1263447985127594 7.7505120000000005 2.0669186433470150 C
atom 11.4649211200889081 4.1294880000000003 6.0907550582139489 C
atom 5.6692881607880743 1.8105120000000001 6.9569182074334677 C
atom 5.9219777578135941 10.0694880000000015 1.2007554941274965 C
atom 0.5795632959300845 7.7196240000000014 3.3986196850780486 C
atom 11.0117026226715815 4.1603760000000003 4.7590540164829154 C
atom 5.2160696633707495 1.7796239999999997 5.6252171657024332 C
atom 6.3751962552309180 10.1003760000000007 2.5324565358585298 C
atom 1.4187709484368451 8.7472440000000002 3.8626432610710624 C
atom 10.1724949701648217 3.1327560000000001 4.2950304404899011 C
atom 4.3768620108639906 2.8072440000000003 5.1611935897094190 C
atom 7.2144039077376796 9.0727560000000018 2.9964801118515436 C
atom 1.3561781124763965 9.8200080000000014 1.6961978230826333 C
atom 10.2350878061252715 2.0599920000000003 6.4614758784783310 C
atom 4.4394548468244386 3.8800080000000001 7.3276390276978498 C
atom 7.1518110717772290 7.9999920000000007 0.8300346738631147 C
atom 1.7363716346065314 10.8797040000000003 0.8135625204938330 C
atom 9.8548942839951366 1.0002960000000001 7.3441111810671318 C
atom 4.0592613246943055 4.9397040000000008 8.2102743302866497 C
atom 7.5320045939073639 6.9402960000000009 -0.0526006287256858 C
atom 1.2796757574136257 10.9094040000000003 9.3634801766523310 C
atom 10.3115901611880432 0.9705960000000000 -1.2058064750913677 C
atom 4.5159572018872103 4.9694040000000008 -0.3396433258718485 C
atom 7.0753087167144582 6.9105959999999991 8.4973170274328123 C
atom 0.4253994592126829 9.8722799999999999 8.8522586248472876 C
atom 11.1658664593889849 2.0077200000000004 -0.6945849232863247 C
atom 5.3702335000881538 3.9322800000000004 0.1715782259331945 C
atom 6.2210324185135146 7.9477200000000012 7.9860954756277689 C
atom 0.0370920509395268 8.8351560000000013 9.7064365558449968 C
atom 11.5541738676621399 3.0448439999999999 -1.5487628542840322 C
atom 5.7585409083613097 2.8951560000000001 -0.6825997050645136 C
atom 5.8327250102403614 8.9848440000000007 8.8402734066254762 C
atom 0.5146522067859154 8.8042680000000004 1.2147187123493071 C
atom 11.0766137118157513 3.0757320000000004 6.9429549892116569 C
atom 5.2809807525149202 2.8642680000000005 7.8091181384311747 C
atom 6.3102851660867501 9.0157320000000016 0.3485555631297885 C
atom 3.5584417357660838 0.5989222971742435 2.9761768443092826 H
atom 3.4870414978993014 1.7012938303454859 0.7383453738774542 H
atom 1.7015785120087368 8.7344453317030695 4.6852951170079198 H
atom 2.9422044078859759 10.8278633852039157 4.3036908455450877 H
atom 0.3434216799154414 7.0720467652807812 3.9294500367530518 H
atom 11.1978804246470300 7.1187839911523847 0.0384502406249428 H
atom 1.4292898799357365 0.7388054929974727 6.6026706113307787 H
atom 2.7505141828000310 1.7515951126169076 8.4675945348169073 H
atom 0.0996883331998679 11.0222441409254177 5.8765476648451642 H
atom 10.5496424103114510 7.1601251852206129 8.0156573553776127 H
atom 9.8113860548369001 7.2192894661012676 5.8566695026335625 H
atom 10.4553833985764353 8.9238642899706235 4.4983759498865492 H
atom 1.0416235082902199 4.7198748147793870 0.1420163461833517 H
atom 1.7798798637647657 4.6607105338987331 2.3010041989273957 H
atom 1.1358825200252358 2.9561357100293715 3.6592977516744170 H
atom 11.4915775854018012 0.8577558590745697 2.2811260367157957 H
atom 8.8407517358016463 10.1284048873830876 -0.3099208332559410 H
atom 10.1619760386659230 11.1411945070025222 1.5550030902301755 H
atom 0.3933854939546351 4.7612160088476116 8.1192234609360234 H
atom 8.6490615107156881 1.0521366147960827 3.8539828560158766 H
atom 9.8896874065929357 3.1455546682969358 3.4723785845530410 H
atom 11.2478442386862163 4.8079532347192142 4.2282236648079108 H
atom 8.0328241828355704 11.2810777028257618 5.1814968572516893 H
atom 8.1042244207023639 10.1787061696545127 7.4193283276835071 H
atom 6.8372564675910494 1.2201251852206112 -0.7241468030361707 H
atom 3.0451187765008001 7.6915951126169038 0.5562423159635816 H
atom 4.3663430793650955 6.6788054929974745 2.4211662394496964 H
atom 7.5755128230656013 1.2792894661012644 1.4348410497078732 H
atom 5.6959446261009656 5.0822441409254262 3.1472891859353203 H
atom 6.9315154793260696 2.9838642899706258 2.7931346024548986 H
atom 2.8534285514148712 4.8878633852039153 4.7201460052353923 H
atom 4.0940544472921090 2.7944453317030713 4.3385417337725576 H
atom 2.2371912235347433 6.5389222971742385 6.0476600064712036 H
atom 5.4522112793853870 1.1320467652807815 5.0943868140274269 H
atom 6.1890184532554624 1.1787839911523794 7.2530603117165047 H
atom 2.3085914614015342 7.6412938303454814 8.2854914769030099 H
atom 7.4972114713095630 9.0855546682969415 3.8191319677884019 H
atom 8.7378373671867973 6.9921366147960784 3.4375276963255739 H
atom 6.1390546392162824 10.7479532347192137 3.0632868875335348 H
atom 9.3540746950669309 5.3410777028257588 2.1100136950897621 H
atom 5.4022474653461989 10.7012160088476218 0.9046133898444608 H
atom 9.2826744572001409 4.2387061696545167 -0.1278177753420636 H
atom 4.7540094510106155 10.6598748147793909 8.8818205045971208 H
atom 4.0157530955360707 10.6007105338987309 6.7228326518530910 H
atom 7.2249228392365774 5.2011945070025201 5.7365074621112688 H
atom 8.5461471421008603 4.1884048873830846 7.6014313855973930 H
atom 4.6597504392756051 8.8961357100293661 5.3645390991060671 H
atom 5.8953212925006993 6.7977558590745719 5.0103845156256446 H
