#=======================================================
# FHI-aims file: pahs_geometry_fix/XECJIZ.in
# Created using the Atomic Simulation Environment (ASE)
# Tue May 25 14:20:53 2021
#=======================================================
lattice_vector 8.5345205877014596 -0.0000000000000000 -2.6484059994834470 
lattice_vector -4.7099228743585844 9.9108392448785541 -1.8259036448379571 
lattice_vector -0.0000000000000000 -0.0000000000000000 11.6430000000000007 
atom 0.6769500773102457 4.1714722381693834 2.7397584464486613 H
atom 3.1476476360326280 5.7393670067091689 4.4289319092299353 H
atom 0.3433317855121984 3.9881217121391299 5.1477101796526981 H
atom 3.4812659278306768 5.9227175327394228 2.0209801760258976 H
atom 0.5819302154226752 1.9613550865614657 6.1464763443782058 H
atom 3.2426674979201997 7.9494841583170883 1.0222140113003912 H
atom 1.3313179220816194 0.0683847907896620 5.0852965861331638 H
atom 2.4932797912612554 9.8424544540888927 2.0833937695454341 H
atom -1.7881172009026738 7.7800088072296640 -1.1257788832822431 H
atom 5.6127149142455464 2.1308304376488891 8.2944692389608399 H
atom -1.2204829794819747 6.8226217361743968 8.4115454496159217 H
atom 5.0450806928248477 3.0882175087041572 -1.2428550939373257 H
atom -1.3948846701216335 6.8483899182110806 6.0202379141295292 H
atom 5.2194823834645092 3.0624493266674730 1.1484524415490678 H
atom -1.9292697475703093 8.8097450047725463 4.8287457632401667 H
atom 5.7538674609131846 1.1010942401060073 2.3399445924384277 H
atom 1.9296125492242646 0.8225996573249200 7.9199777062189005 H
atom 1.8949851641186106 9.0882395875536339 -0.7512873505403050 H
atom 1.4380878222990892 1.9772124293532714 9.8527850113987387 H
atom 2.3865098910437843 7.9336268155252823 -2.6840946557201435 H
atom 2.9842524118301657 4.0951587759838191 0.0092234680513689 H
atom 0.8403453015127088 5.8156804688947341 7.1594668876272287 H
atom 2.6836884121728986 6.0188526734147452 -1.1806270207745380 H
atom 1.1409093011699738 3.8919865714638080 8.3493173764531363 H
atom 0.4458024825111226 6.8721759323987897 -1.1581007565059906 H
atom 3.3787952308317526 3.0386633124797644 8.3267911121845870 H
atom -1.2970810959634593 5.5758381591686748 -0.5563362415039603 H
atom 5.1216788093063332 4.3350010857098793 7.7250265971825574 H
atom -1.0170849348374595 3.6253849957765754 0.6615802705609948 H
atom 4.8416826481803348 6.2854542491019787 6.5071100851176036 H
atom 4.3962691187403573 7.4777282102608673 -1.6208214885490695 H
atom -0.5716714053974824 2.4331110346176850 8.7895118442276683 H
atom 4.9076286901232136 5.6115171804502380 -0.4025146682488103 H
atom -1.0830309767803414 4.2993220644283170 7.5712050239274076 H
atom -1.4612413444422645 5.3627551154037860 3.1967378134439910 H
atom 5.2858390577851386 4.5480841294747680 3.9719525422346069 H
atom 0.0518546571774737 7.1605813544247559 3.0366764680136775 H
atom 3.7727430561654014 2.7502578904537991 4.1320138876649199 H
atom -0.4832457497350390 8.9564254255967484 1.8432563837883071 H
atom 4.3078434630779121 0.9544138192818046 5.3254339718902903 H
atom 0.8148162906961739 3.3013005524690464 3.1893688002487495 C
atom 3.0097814226467015 6.6095386924095081 3.9793215554298462 C
atom 0.6341606819711606 3.2091297474916756 4.5276252819321572 C
atom 3.1904370313717147 6.7017094973868785 2.6410650737464394 C
atom 0.8359933313878740 1.9673015901083928 5.1970959816068509 C
atom 2.9886043819550010 7.9435376547701608 1.9715943740717465 C
atom 1.2735947564946197 0.8830557767186792 4.5116320349474224 C
atom 2.5510029568482566 9.0277834681598748 2.6570583207311742 C
atom 1.5018134994600196 0.9326099729430720 3.0994011397384713 C
atom 2.3227842138828549 8.9782292719354828 4.0692892159401257 C
atom -2.7251545850586552 9.7373995580931805 0.5613989716618477 C
atom 6.5497522984015282 0.1734396867853747 6.6072913840167500 C
atom -2.5901108518244751 9.7998378453359152 -0.8413277570906633 C
atom 6.4147085651673494 0.1110013995426398 8.0100181127692593 C
atom -2.1221640689780212 8.6858595142115647 -1.5915467642145955 C
atom 5.9467617823208956 1.2249797306669894 8.7602371198931941 C
atom -2.0547448997304962 8.7146009480217117 8.6494528582202843 C
atom 5.8793426130733710 1.1962382968568412 -1.4807625025416860 C
atom -1.6310288886148157 7.5877385258790202 7.8916185212315915 C
atom 5.4556266019576896 2.3231007189995330 -0.7229281655529949 C
atom -1.5994263761287093 7.6253997150095580 6.5361958325842027 C
atom 5.4240240894715841 2.2854395298689947 0.6324945230943940 C
atom -1.9854205184169376 8.8057806690745952 5.8383045854945923 C
atom 5.8100182317598117 1.1050585758039588 1.3303857701840047 C
atom -2.3911219603870260 9.9019194895581624 6.5250603613824874 C
atom 6.2157196737299003 0.0089197553203907 0.6436299942961103 C
atom -2.4500986849582671 9.9039016574071379 7.9503430414500071 C
atom 6.2746963983011437 0.0069375874714150 -0.7816526857714101 C
atom 1.8402869060623841 1.1219070025202522 10.5006906989479969 C
atom 1.9843108072804891 8.7889322423583014 -3.3320003432694008 C
atom 1.7696876530258383 1.1070407436529344 0.2840186490105530 C
atom 2.0549100603170354 8.8037985012256197 6.8846717066680441 C
atom 1.3601261968448433 2.2418318371915289 1.0162018104844583 C
atom 2.4644715164980302 7.6690074076870243 6.1524885451941387 C
atom 1.2225823102435269 2.1684916267794274 2.4105132986458253 C
atom 2.6020154030993505 7.7423476180991253 4.7581770570327695 C
atom 1.0836536717531551 3.5401517782706198 0.3208827336312976 C
atom 2.7409440415897182 6.3706874666079347 6.8478076220473003 C
atom 2.1196169263242939 4.3359921696343671 -0.1143835031635985 C
atom 1.7049807870185809 5.5748470752441870 7.2830738588421964 C
atom 1.8722290608306005 5.5659273199237962 -0.6970789824675840 C
atom 1.9523686525122732 4.3449119249547579 7.8657693381461824 C
atom 0.5859917842319826 6.0168705055657696 -0.8631729047725916 C
atom 3.2386059291108920 3.8939687393127835 8.0318632604511873 C
atom -0.4485903665790937 5.2378785409183157 -0.4420740507733526 C
atom 4.2731880799219679 4.6729607039602383 7.6107644064519500 C
atom -0.2058805508575122 3.9980325513840085 0.1476891787749032 C
atom 4.0304782642003882 5.9128066934945442 7.0210011769036926 C
atom -2.3643425848693154 8.4807051418425790 1.3005683000129915 C
atom 6.1889402982121906 1.4301341030359755 5.8681220556656051 C
atom -3.2920378161393784 7.4678173710159887 1.4715147830301480 C
atom 7.1166355294822523 2.4430218738625635 5.6971755726484492 C
atom -2.9685864853780677 6.3310441096284205 2.2092782434799410 C
atom 6.7931841987209420 3.5797951352501340 4.9594121121986552 C
atom -1.7221179731188037 6.1972477798225594 2.7703556711568478 C
atom 5.5467156864616785 3.7135914650559934 4.3983346845217479 C
atom -0.7837953139768480 7.1823852007634885 2.5890160401450841 C
atom 4.6083930273197220 2.7284540441150660 4.5796743155335138 C
atom -1.1034503767317438 8.3201495460755464 1.8555672863310635 C
atom 4.9280480900746193 1.5906896988030079 5.3131230693475322 C
